9999 9671
9999 5038
9999 3544
9998 9033
9998 3311
9998 481
9997 8966
9997 4872
9997 90
9996 7242
9996 307
9996 38
9995 3485
9995 931
9995 9
9994 7748
9994 2812
9994 1866
9993 7251
9993 6412
9993 97
9992 4993
9992 3862
9992 89
9991 6266
9991 5555
9991 0
9990 4882
9990 1512
9990 458
9989 9459
9989 586
9989 457
9988 6954
9988 4709
9988 221
9987 4288
9987 1181
9987 102
9986 7165
9986 3951
9986 3935
9985 3946
9985 2779
9985 326
9984 4616
9984 4059
9984 1056
9983 1990
9983 217
9983 46
9982 5194
9982 3199
9982 613
9981 3832
9981 3562
9981 989
9980 929
9980 637
9980 479
9979 7544
9979 798
9979 167
9978 5552
9978 5081
9978 1981
9977 8573
9977 8055
9977 1041
9976 638
9976 582
9976 518
9975 2260
9975 414
9975 63
9974 4607
9974 956
9974 536
9973 4534
9973 3033
9973 36
9972 9420
9972 8333
9972 5999
9971 7058
9971 6515
9971 3869
9970 9777
9970 9141
9970 3145
9969 4420
9969 3166
9969 102
9968 9897
9968 2245
9968 20
9967 6338
9967 3284
9967 2243
9966 6478
9966 5646
9966 164
9965 9764
9965 8874
9965 234
9964 6120
9964 1840
9964 308
9963 4109
9963 1448
9963 911
9962 7822
9962 362
9962 108
9961 5695
9961 4265
9961 654
9960 9161
9960 5893
9960 499
9959 7446
9959 1892
9959 80
9958 9542
9958 1027
9958 141
9957 2707
9957 835
9957 5
9956 4737
9956 2475
9956 1252
9955 8349
9955 2245
9955 95
9954 9023
9954 3517
9954 482
9953 4343
9953 1666
9953 1058
9952 3690
9952 2277
9952 1069
9951 8189
9951 1306
9951 19
9950 3058
9950 2652
9950 1328
9949 6867
9949 5069
9949 1368
9948 5080
9948 1550
9948 172
9947 4719
9947 3414
9947 2631
9946 8197
9946 5694
9946 365
9945 5552
9945 2518
9945 1680
9944 5082
9944 1244
9944 444
9943 7049
9943 1228
9943 156
9942 9625
9942 9120
9942 608
9941 5565
9941 4112
9941 1181
9940 9879
9940 3132
9940 102
9939 6855
9939 2855
9939 2360
9938 4495
9938 106
9938 7
9937 2862
9937 772
9937 29
9936 8596
9936 1484
9936 825
9935 8075
9935 707
9935 72
9934 9230
9934 6851
9934 880
9933 3912
9933 1473
9933 1182
9932 8643
9932 551
9932 177
9931 1419
9931 61
9931 18
9930 7694
9930 64
9930 24
9929 3880
9929 381
9929 179
9928 3231
9928 2575
9928 2513
9927 2274
9927 638
9927 455
9926 3075
9926 1175
9926 1066
9925 2295
9925 2069
9925 301
9924 8000
9924 1979
9924 294
9923 5611
9923 193
9923 27
9922 9132
9922 1456
9922 653
9921 6298
9921 944
9921 861
9920 3975
9920 597
9920 2
9919 7287
9919 815
9919 50
9918 2958
9918 1483
9918 52
9917 1527
9917 1073
9917 72
9916 6935
9916 2727
9916 1138
9915 3728
9915 3719
9915 2266
9914 5634
9914 266
9914 192
9913 6410
9913 1794
9913 841
9912 6033
9912 2672
9912 950
9911 6655
9911 3340
9911 1800
9910 4017
9910 3662
9910 1749
9909 6099
9909 4086
9909 102
9908 3439
9908 277
9908 26
9907 7348
9907 3543
9907 33
9906 3634
9906 947
9906 7
9905 4094
9905 2015
9905 314
9904 2378
9904 883
9904 9
9903 5794
9903 4665
9903 442
9902 8492
9902 4208
9902 447
9901 7454
9901 6501
9901 3277
9900 9163
9900 2991
9900 717
9899 9168
9899 8571
9899 964
9898 3019
9898 416
9898 10
9897 9968
9897 8040
9897 7475
9897 688
9896 744
9896 402
9896 138
9895 4128
9895 1615
9895 380
9894 4428
9894 2497
9894 1102
9893 4551
9893 3276
9893 1276
9892 3587
9892 1511
9892 1466
9891 6109
9891 3618
9891 2178
9890 5552
9890 1095
9890 144
9889 2133
9889 1587
9889 27
9888 7009
9888 3047
9888 1418
9887 6526
9887 3509
9887 46
9886 8925
9886 1068
9886 424
9885 3414
9885 380
9885 0
9884 4087
9884 2264
9884 819
9883 6254
9883 4014
9883 4
9882 5935
9882 5374
9882 77
9881 8925
9881 2843
9881 45
9880 7832
9880 3919
9880 3154
9879 9940
9879 193
9879 35
9879 10
9878 8757
9878 8282
9878 352
9877 9381
9877 7850
9877 953
9876 9043
9876 6079
9876 511
9875 4103
9875 3374
9875 784
9874 292
9874 264
9874 195
9873 4287
9873 1483
9873 1164
9872 7762
9872 3059
9872 193
9871 5708
9871 201
9871 38
9870 5575
9870 2635
9870 59
9869 7708
9869 2665
9869 531
9868 7597
9868 4110
9868 2989
9867 7950
9867 4045
9867 1485
9866 3185
9866 2743
9866 1571
9865 6538
9865 6072
9865 3542
9864 5636
9864 1806
9864 5
9863 5999
9863 3329
9863 2678
9862 820
9862 33
9862 16
9861 3595
9861 1698
9861 342
9860 3891
9860 2977
9860 1236
9859 4382
9859 3864
9859 188
9858 4940
9858 3544
9858 391
9857 8191
9857 5805
9857 184
9856 1801
9856 117
9856 2
9855 9268
9855 4630
9855 778
9854 5267
9854 1046
9854 664
9853 7962
9853 4180
9853 2671
9852 8576
9852 4489
9852 712
9851 1229
9851 1043
9851 381
9850 2483
9850 89
9850 5
9849 6678
9849 3974
9849 790
9848 5409
9848 2596
9848 17
9847 8724
9847 2193
9847 222
9846 6164
9846 2234
9846 219
9845 6718
9845 5318
9845 3063
9844 8833
9844 2805
9844 609
9843 7652
9843 6148
9843 24
9842 3335
9842 416
9842 293
9841 4445
9841 2651
9841 553
9840 6377
9840 3877
9840 174
9839 2760
9839 46
9839 28
9838 8802
9838 5130
9838 4705
9837 8608
9837 4997
9837 2456
9836 9065
9836 4950
9836 272
9835 3270
9835 537
9835 35
9834 1426
9834 177
9834 48
9833 2483
9833 720
9833 320
9832 6165
9832 3421
9832 2259
9831 8094
9831 4741
9831 1122
9830 1635
9830 339
9830 321
9829 7427
9829 2499
9829 224
9828 7000
9828 2001
9828 1481
9827 5588
9827 3912
9827 2506
9826 488
9826 326
9826 107
9825 3615
9825 2127
9825 62
9824 3877
9824 3727
9824 1944
9823 9564
9823 7722
9823 568
9822 6080
9822 5618
9822 3803
9821 4601
9821 4087
9821 3761
9820 4932
9820 2575
9820 6
9819 7905
9819 6617
9819 2733
9818 2908
9818 2800
9818 30
9817 8740
9817 2556
9817 49
9816 3426
9816 420
9816 6
9815 2385
9815 2058
9815 1277
9814 3563
9814 2819
9814 43
9813 8708
9813 3602
9813 280
9812 7500
9812 5061
9812 4654
9811 9280
9811 1103
9811 400
9810 7717
9810 4468
9810 1235
9809 2863
9809 1300
9809 1046
9808 1949
9808 932
9808 10
9807 6300
9807 5518
9807 988
9806 9615
9806 4379
9806 113
9805 9276
9805 254
9805 84
9804 8287
9804 2023
9804 110
9803 5226
9803 3286
9803 527
9802 5370
9802 1248
9802 247
9801 5648
9801 2479
9801 2006
9800 8237
9800 4633
9800 1494
9799 1986
9799 548
9799 242
9798 6776
9798 1824
9798 35
9797 3629
9797 2464
9797 351
9796 705
9796 126
9796 7
9795 6839
9795 3032
9795 820
9794 3375
9794 2337
9794 1389
9793 7628
9793 1281
9793 47
9792 2564
9792 2554
9792 949
9791 7750
9791 6997
9791 677
9790 2334
9790 178
9790 55
9789 7652
9789 291
9789 113
9788 222
9788 132
9788 0
9787 1755
9787 534
9787 126
9786 2915
9786 1551
9786 476
9785 9674
9785 5998
9785 4231
9784 5430
9784 2941
9784 2694
9783 3170
9783 3087
9783 50
9782 5614
9782 3328
9782 459
9781 7442
9781 7003
9781 4579
9780 8763
9780 2458
9780 550
9779 5805
9779 1929
9779 265
9778 8108
9778 278
9778 89
9777 9970
9777 7572
9777 7396
9777 3543
9776 7576
9776 270
9776 0
9775 9010
9775 4286
9775 41
9774 8223
9774 6730
9774 1273
9773 7110
9773 5188
9773 3673
9772 9071
9772 2986
9772 19
9771 9712
9771 345
9771 52
9770 8228
9770 7050
9770 3
9769 9435
9769 5407
9769 56
9768 7214
9768 7144
9768 2371
9767 8600
9767 6822
9767 1484
9766 3688
9766 1518
9766 545
9765 9573
9765 7770
9765 4363
9764 9965
9764 5409
9764 1131
9764 77
9763 6460
9763 5614
9763 1589
9762 3351
9762 118
9762 67
9761 7466
9761 3682
9761 1366
9760 7623
9760 7388
9760 5742
9759 3771
9759 2737
9759 1219
9758 5102
9758 3110
9758 1176
9757 8107
9757 3693
9757 706
9756 1165
9756 316
9756 261
9755 4490
9755 3677
9755 304
9754 6469
9754 4261
9754 0
9753 8735
9753 3606
9753 82
9752 8329
9752 2371
9752 357
9751 7441
9751 493
9751 387
9750 1738
9750 1593
9750 1148
9749 9254
9749 392
9749 4
9748 6919
9748 2464
9748 2050
9747 3127
9747 1145
9747 1090
9746 5347
9746 390
9746 24
9745 9560
9745 5725
9745 3954
9744 4965
9744 4364
9744 2257
9743 1762
9743 905
9743 272
9742 6666
9742 5131
9742 7
9741 2798
9741 583
9741 35
9740 6896
9740 6024
9740 3953
9739 6383
9739 2425
9739 16
9738 5622
9738 1566
9738 500
9737 5548
9737 3022
9737 1503
9736 9220
9736 4775
9736 901
9735 3432
9735 2537
9735 2
9734 5317
9734 164
9734 46
9733 6472
9733 6262
9733 5979
9732 5700
9732 5500
9732 296
9731 4766
9731 2938
9731 2344
9730 9000
9730 8374
9730 4390
9729 5832
9729 3558
9729 3328
9728 3705
9728 1141
9728 410
9727 7224
9727 3661
9727 426
9726 8880
9726 2356
9726 1970
9725 9071
9725 979
9725 52
9724 5643
9724 1461
9724 0
9723 4554
9723 904
9723 82
9722 4515
9722 3150
9722 11
9721 5694
9721 2346
9721 1265
9720 5994
9720 1813
9720 669
9719 2923
9719 584
9719 580
9718 4074
9718 1514
9718 676
9717 8161
9717 7815
9717 7293
9716 8598
9716 3746
9716 31
9715 6829
9715 4256
9715 2851
9714 2094
9714 433
9714 57
9713 8728
9713 2313
9713 187
9712 9771
9712 9562
9712 1594
9712 1498
9711 7072
9711 6312
9711 503
9710 9242
9710 9077
9710 3608
9709 6712
9709 5719
9709 80
9708 5297
9708 2712
9708 2
9707 2204
9707 1014
9707 193
9706 2080
9706 1131
9706 863
9705 2109
9705 1608
9705 306
9704 8721
9704 8703
9704 4927
9703 7586
9703 6012
9703 2575
9702 9384
9702 3442
9702 1473
9701 5475
9701 3893
9701 1180
9700 3082
9700 528
9700 63
9699 3093
9699 772
9699 632
9698 6095
9698 4155
9698 384
9697 9112
9697 8509
9697 89
9696 8408
9696 6966
9696 4001
9695 3368
9695 2633
9695 577
9694 2696
9694 1139
9694 461
9693 7006
9693 3187
9693 935
9692 8895
9692 8196
9692 1206
9691 6774
9691 164
9691 4
9690 4841
9690 1883
9690 878
9689 6489
9689 4874
9689 655
9688 7649
9688 862
9688 52
9687 8768
9687 3698
9687 3054
9686 1064
9686 435
9686 11
9685 1820
9685 866
9685 10
9684 9201
9684 5864
9684 2749
9683 7161
9683 3732
9683 2394
9682 7925
9682 644
9682 458
9681 5824
9681 1101
9681 26
9680 2005
9680 964
9680 12
9679 6139
9679 1839
9679 867
9678 9016
9678 6403
9678 13
9677 3054
9677 1486
9677 170
9676 2708
9676 1556
9676 951
9675 6156
9675 2635
9675 26
9674 9785
9674 7616
9674 4052
9674 68
9673 4916
9673 403
9673 150
9672 5529
9672 1477
9672 1275
9671 9999
9671 7144
9671 1430
9671 146
9670 3653
9670 994
9670 27
9669 7977
9669 6448
9669 1786
9668 6881
9668 5470
9668 343
9667 8264
9667 3250
9667 579
9666 6982
9666 294
9666 252
9665 9225
9665 2046
9665 1028
9664 7069
9664 3249
9664 2974
9663 5439
9663 545
9663 270
9662 7615
9662 1075
9662 387
9661 3145
9661 506
9661 174
9660 5622
9660 3060
9660 2140
9659 5101
9659 3656
9659 519
9658 2685
9658 77
9658 23
9657 1731
9657 376
9657 112
9656 7624
9656 2330
9656 1049
9655 3332
9655 778
9655 55
9654 3200
9654 2652
9654 84
9653 2556
9653 1387
9653 898
9652 3783
9652 2562
9652 80
9651 4774
9651 3509
9651 62
9650 552
9650 507
9650 5
9649 7382
9649 6182
9649 416
9648 4363
9648 376
9648 176
9647 6763
9647 316
9647 300
9646 8880
9646 5987
9646 225
9645 5779
9645 473
9645 13
9644 3039
9644 1025
9644 126
9643 6692
9643 2033
9643 1996
9642 5829
9642 3784
9642 2456
9641 3812
9641 896
9641 51
9640 9348
9640 6401
9640 1519
9639 3770
9639 3676
9639 1342
9638 9164
9638 3686
9638 858
9637 6582
9637 4654
9637 1650
9636 7082
9636 4239
9636 153
9635 7520
9635 4593
9635 1088
9634 6043
9634 1325
9634 1101
9633 6624
9633 5835
9633 3957
9632 4904
9632 3151
9632 1818
9631 2471
9631 950
9631 263
9630 5989
9630 643
9630 236
9629 7774
9629 633
9629 302
9628 8532
9628 8131
9628 6942
9627 3408
9627 2449
9627 808
9626 4551
9626 2010
9626 630
9625 9942
9625 3060
9625 608
9625 13
9624 5761
9624 1370
9624 552
9623 6075
9623 2760
9623 2359
9622 7016
9622 1357
9622 55
9621 7648
9621 4132
9621 3424
9620 8363
9620 6370
9620 4753
9619 8232
9619 3320
9619 184
9618 3505
9618 2978
9618 4
9617 7569
9617 2299
9617 322
9616 1742
9616 5
9616 0
9615 9806
9615 7072
9615 4826
9615 584
9614 6171
9614 6164
9614 43
9613 3561
9613 3355
9613 192
9612 8576
9612 4667
9612 489
9611 6295
9611 4739
9611 513
9610 9601
9610 6358
9610 184
9609 6262
9609 3568
9609 140
9608 8698
9608 2578
9608 949
9607 7730
9607 2126
9607 1379
9606 4650
9606 3222
9606 725
9605 8958
9605 3464
9605 55
9604 5559
9604 948
9604 417
9603 7312
9603 651
9603 92
9602 1791
9602 520
9602 507
9601 9610
9601 3650
9601 2565
9601 294
9600 3549
9600 3100
9600 1628
9599 9089
9599 1561
9599 723
9598 9029
9598 4605
9598 2848
9597 8436
9597 7048
9597 396
9596 7634
9596 5013
9596 23
9595 6291
9595 1610
9595 92
9594 6791
9594 3238
9594 152
9593 9423
9593 4056
9593 820
9592 7823
9592 6523
9592 532
9591 5759
9591 3422
9591 200
9590 1858
9590 1575
9590 1228
9589 7849
9589 3081
9589 2405
9588 3961
9588 2194
9588 1564
9587 5671
9587 2565
9587 1906
9586 4621
9586 2671
9586 2432
9585 9118
9585 4271
9585 3550
9584 3573
9584 3289
9584 395
9583 5832
9583 2136
9583 79
9582 6074
9582 3628
9582 2381
9581 1533
9581 502
9581 23
9580 8948
9580 3013
9580 14
9579 1846
9579 576
9579 30
9578 9032
9578 288
9578 246
9577 9273
9577 3345
9577 1164
9576 8384
9576 7512
9576 1087
9575 7188
9575 2426
9575 93
9574 3281
9574 181
9574 84
9573 9765
9573 4887
9573 704
9573 72
9572 150
9572 23
9572 0
9571 7971
9571 1594
9571 165
9570 4666
9570 182
9570 7
9569 1418
9569 917
9569 536
9568 9282
9568 4414
9568 1472
9567 5429
9567 413
9567 182
9566 5310
9566 3099
9566 1573
9565 7836
9565 984
9565 200
9564 9823
9564 3797
9564 1193
9564 917
9563 1658
9563 1290
9563 940
9562 9712
9562 1831
9562 747
9562 6
9561 5953
9561 1840
9561 178
9560 9745
9560 3722
9560 1530
9560 1005
9559 4789
9559 4224
9559 142
9558 3618
9558 3171
9558 3073
9557 6259
9557 3686
9557 265
9556 7136
9556 6716
9556 3260
9555 9132
9555 4734
9555 3509
9554 6895
9554 6627
9554 2935
9553 1437
9553 793
9553 381
9552 3205
9552 958
9552 249
9551 7110
9551 5037
9551 615
9550 3323
9550 2356
9550 119
9549 8840
9549 3809
9549 1650
9548 490
9548 222
9548 74
9547 8164
9547 6178
9547 4312
9546 8247
9546 2423
9546 1275
9545 2015
9545 1290
9545 640
9544 4252
9544 120
9544 10
9543 9164
9543 2375
9543 1431
9542 9958
9542 6396
9542 1390
9542 578
9541 1306
9541 32
9541 26
9540 8500
9540 3854
9540 198
9539 9361
9539 3867
9539 768
9538 3529
9538 293
9538 164
9537 3185
9537 1375
9537 1135
9536 9380
9536 265
9536 59
9535 7609
9535 4999
9535 202
9534 4743
9534 806
9534 46
9533 8262
9533 4584
9533 532
9532 4673
9532 1602
9532 999
9531 5617
9531 4414
9531 77
9530 9298
9530 1647
9530 71
9529 7985
9529 5554
9529 1641
9528 5559
9528 5102
9528 384
9527 7355
9527 716
9527 4
9526 7424
9526 7234
9526 19
9525 7258
9525 4165
9525 2055
9524 7107
9524 740
9524 480
9523 5589
9523 4328
9523 3929
9522 2406
9522 1801
9522 1678
9521 7037
9521 6069
9521 1
9520 4661
9520 2063
9520 97
9519 3416
9519 2784
9519 2718
9518 2062
9518 357
9518 41
9517 8132
9517 3171
9517 394
9516 4950
9516 2860
9516 344
9515 6447
9515 4357
9515 457
9514 5569
9514 683
9514 297
9513 7256
9513 6715
9513 723
9512 5550
9512 4176
9512 297
9511 8741
9511 2180
9511 1032
9510 9060
9510 1438
9510 386
9509 5979
9509 4727
9509 1357
9508 7421
9508 6570
9508 655
9507 3082
9507 1831
9507 12
9506 9056
9506 5086
9506 976
9505 8158
9505 3791
9505 387
9504 8236
9504 6077
9504 5227
9503 6993
9503 3442
9503 2907
9502 7035
9502 1473
9502 1126
9501 3292
9501 150
9501 9
9500 6385
9500 6003
9500 5835
9499 8532
9499 4076
9499 2079
9498 2468
9498 1467
9498 616
9497 3076
9497 326
9497 309
9496 4644
9496 3513
9496 83
9495 4095
9495 154
9495 12
9494 5028
9494 3267
9494 1394
9493 6057
9493 2082
9493 1132
9492 3186
9492 1593
9492 304
9491 6648
9491 1688
9491 1430
9490 1136
9490 1101
9490 1068
9489 8347
9489 2605
9489 16
9488 7056
9488 1328
9488 303
9487 1427
9487 772
9487 356
9486 1348
9486 1027
9486 63
9485 1568
9485 1495
9485 625
9484 8086
9484 4445
9484 854
9483 6649
9483 3590
9483 2448
9482 5437
9482 69
9482 6
9481 3152
9481 2490
9481 535
9480 1695
9480 389
9480 2
9479 8081
9479 571
9479 472
9478 6073
9478 4688
9478 401
9477 2446
9477 1180
9477 385
9476 7840
9476 6252
9476 638
9475 7978
9475 4132
9475 1989
9474 6293
9474 4665
9474 790
9473 9149
9473 303
9473 177
9472 7432
9472 6311
9472 2426
9471 2531
9471 2507
9471 108
9470 8840
9470 7556
9470 2657
9469 7527
9469 5219
9469 1407
9468 8092
9468 3643
9468 3350
9467 8245
9467 3018
9467 120
9466 6605
9466 3886
9466 2617
9465 2974
9465 1502
9465 867
9464 3118
9464 952
9464 473
9463 9320
9463 6261
9463 7
9462 7926
9462 5271
9462 198
9461 4098
9461 3701
9461 60
9460 6993
9460 5091
9460 0
9459 9989
9459 5040
9459 3477
9459 3127
9458 3062
9458 711
9458 7
9457 8156
9457 7597
9457 7161
9456 3969
9456 1975
9456 131
9455 7872
9455 4435
9455 339
9454 8329
9454 4143
9454 1149
9453 7042
9453 5451
9453 507
9452 5880
9452 4170
9452 1623
9451 3065
9451 46
9451 9
9450 8749
9450 3055
9450 909
9449 8991
9449 7690
9449 2195
9448 6803
9448 5472
9448 278
9447 6030
9447 1153
9447 140
9446 324
9446 42
9446 7
9445 5413
9445 2541
9445 1008
9444 4924
9444 4774
9444 599
9443 4834
9443 2894
9443 25
9442 4986
9442 2162
9442 806
9441 370
9441 240
9441 77
9440 8727
9440 3904
9440 1359
9439 7399
9439 1481
9439 119
9438 8240
9438 2731
9438 2280
9437 8826
9437 7394
9437 3203
9436 6213
9436 2889
9436 1417
9435 9769
9435 1471
9435 1427
9435 509
9434 2883
9434 49
9434 11
9433 7118
9433 4873
9433 2394
9432 1341
9432 1038
9432 36
9431 5406
9431 2886
9431 77
9430 4648
9430 600
9430 10
9429 4710
9429 2524
9429 1004
9428 4654
9428 1678
9428 3
9427 8263
9427 7815
9427 3029
9426 6796
9426 2712
9426 599
9425 317
9425 299
9425 14
9424 1572
9424 239
9424 23
9423 9593
9423 5211
9423 2325
9423 583
9422 1979
9422 415
9422 19
9421 9158
9421 4954
9421 3886
9420 9972
9420 7791
9420 1418
9420 274
9419 1805
9419 1020
9419 114
9418 7091
9418 6242
9418 44
9417 2381
9417 2328
9417 478
9416 2023
9416 1148
9416 407
9415 5057
9415 984
9415 454
9414 5971
9414 3654
9414 865
9413 7549
9413 5700
9413 2274
9412 8974
9412 3244
9412 150
9411 5499
9411 2371
9411 100
9410 3843
9410 1867
9410 979
9409 6395
9409 2172
9409 55
9408 7367
9408 6625
9408 59
9407 3520
9407 2910
9407 20
9406 8213
9406 7599
9406 2178
9405 937
9405 399
9405 171
9404 4799
9404 1592
9404 102
9403 4655
9403 3117
9403 2791
9402 7038
9402 2417
9402 13
9401 3295
9401 2537
9401 1
9400 6214
9400 5827
9400 3
9399 7037
9399 1831
9399 1438
9398 420
9398 193
9398 171
9397 8214
9397 2498
9397 1532
9396 8485
9396 2514
9396 147
9395 4402
9395 3595
9395 27
9394 3873
9394 2595
9394 1449
9393 6638
9393 3184
9393 2435
9392 7322
9392 1320
9392 186
9391 8353
9391 6023
9391 8
9390 7956
9390 6557
9390 3898
9389 3383
9389 1238
9389 517
9388 9063
9388 1548
9388 1043
9387 1716
9387 1672
9387 599
9386 8893
9386 6178
9386 953
9385 8648
9385 499
9385 388
9384 9702
9384 6566
9384 193
9384 97
9383 7002
9383 1182
9383 7
9382 7754
9382 7422
9382 1914
9381 9877
9381 7607
9381 6599
9381 2928
9380 9536
9380 8308
9380 1894
9380 146
9379 9325
9379 3574
9379 159
9378 6529
9378 5211
9378 1931
9377 1057
9377 184
9377 16
9376 3921
9376 1012
9376 3
9375 7666
9375 6948
9375 5649
9374 6023
9374 296
9374 3
9373 6680
9373 527
9373 186
9372 8336
9372 4477
9372 488
9371 5384
9371 4264
9371 4073
9370 8112
9370 4779
9370 3311
9369 8761
9369 793
9369 91
9368 3010
9368 951
9368 37
9367 9168
9367 375
9367 266
9366 1968
9366 1903
9366 1802
9365 8287
9365 7761
9365 1615
9364 8949
9364 5636
9364 4391
9363 8126
9363 3984
9363 307
9362 3057
9362 1767
9362 1160
9361 9539
9361 2175
9361 963
9361 589
9360 7319
9360 4870
9360 2633
9359 4459
9359 3023
9359 2562
9358 8544
9358 6466
9358 3175
9357 84
9357 83
9357 27
9356 5883
9356 1597
9356 417
9355 5673
9355 1047
9355 672
9354 5667
9354 5222
9354 4756
9353 8329
9353 7694
9353 343
9352 7775
9352 5235
9352 5133
9351 1887
9351 1311
9351 132
9350 3368
9350 1599
9350 772
9349 7454
9349 3063
9349 228
9348 9640
9348 8765
9348 7822
9348 7
9347 9024
9347 3960
9347 2855
9346 7126
9346 2617
9346 186
9345 7915
9345 193
9345 14
9344 3792
9344 1380
9344 1146
9343 825
9343 171
9343 163
9342 6862
9342 5320
9342 3929
9341 3707
9341 3082
9341 142
9340 1274
9340 464
9340 37
9339 5966
9339 607
9339 180
9338 4713
9338 1358
9338 833
9337 4146
9337 4136
9337 55
9336 5900
9336 3835
9336 1444
9335 7781
9335 2257
9335 1615
9334 1297
9334 300
9334 41
9333 5936
9333 1790
9333 252
9332 4825
9332 1586
9332 1311
9331 9004
9331 4086
9331 2940
9330 3937
9330 1048
9330 11
9329 304
9329 79
9329 28
9328 6598
9328 3992
9328 430
9327 8898
9327 4064
9327 3700
9326 7207
9326 2639
9326 117
9325 9379
9325 6585
9325 6281
9325 1775
9324 9128
9324 5066
9324 865
9323 888
9323 476
9323 228
9322 6562
9322 5054
9322 1879
9321 5019
9321 1546
9321 4
9320 9463
9320 9254
9320 2922
9320 2094
9319 6757
9319 6083
9319 289
9318 2414
9318 634
9318 560
9317 9169
9317 856
9317 393
9316 957
9316 608
9316 44
9315 7863
9315 5191
9315 4375
9314 5446
9314 1219
9314 541
9313 6609
9313 5128
9313 2446
9312 5224
9312 2506
9312 187
9311 3222
9311 2499
9311 1423
9310 5737
9310 1355
9310 7
9309 8662
9309 7766
9309 12
9308 6407
9308 4369
9308 140
9307 9106
9307 7071
9307 6857
9306 6550
9306 2005
9306 466
9305 3653
9305 115
9305 33
9304 225
9304 207
9304 103
9303 6423
9303 2999
9303 9
9302 8930
9302 5795
9302 2768
9301 5247
9301 4826
9301 958
9300 1970
9300 156
9300 90
9299 5801
9299 1801
9299 83
9298 9530
9298 8461
9298 8331
9298 5672
9297 3048
9297 2765
9297 2478
9296 8124
9296 1202
9296 0
9295 2621
9295 1955
9295 303
9294 5890
9294 5237
9294 4883
9293 7002
9293 6253
9293 1056
9292 3275
9292 2567
9292 184
9291 6918
9291 6490
9291 6433
9290 5786
9290 4187
9290 573
9289 2379
9289 851
9289 690
9288 8748
9288 4828
9288 748
9287 3450
9287 318
9287 129
9286 7999
9286 2466
9286 632
9285 4586
9285 3159
9285 2125
9284 8783
9284 6823
9284 5337
9283 7154
9283 1059
9283 841
9282 9568
9282 6433
9282 599
9282 11
9281 8319
9281 2314
9281 5
9280 9811
9280 7158
9280 7150
9280 2765
9279 9232
9279 3661
9279 2228
9278 9134
9278 85
9278 1
9277 4627
9277 2815
9277 1382
9276 9805
9276 5279
9276 2359
9276 1983
9275 644
9275 633
9275 17
9274 5790
9274 3833
9274 68
9273 9577
9273 7101
9273 3017
9273 1160
9272 6029
9272 4133
9272 702
9271 8501
9271 1228
9271 14
9270 467
9270 304
9270 38
9269 7603
9269 7493
9269 1026
9268 9855
9268 5347
9268 4177
9268 985
9267 2526
9267 560
9267 545
9266 4618
9266 1251
9266 1
9265 8389
9265 6091
9265 1395
9264 7630
9264 3359
9264 1664
9263 3343
9263 2989
9263 986
9262 4563
9262 274
9262 170
9261 7552
9261 166
9261 138
9260 4219
9260 3505
9260 77
9259 4882
9259 799
9259 28
9258 3217
9258 3015
9258 1316
9257 4713
9257 819
9257 100
9256 4181
9256 3868
9256 62
9255 8613
9255 6016
9255 3057
9254 9749
9254 9320
9254 4238
9254 684
9254 83
9253 6134
9253 4413
9253 240
9252 6177
9252 5838
9252 325
9251 4143
9251 3875
9251 239
9250 4455
9250 3452
9250 410
9249 8992
9249 4967
9249 2435
9248 4590
9248 4098
9248 2150
9247 5894
9247 2904
9247 107
9246 7603
9246 2022
9246 320
9245 3755
9245 808
9245 21
9244 2432
9244 1876
9244 326
9243 2935
9243 538
9243 239
9242 9710
9242 6774
9242 5476
9242 116
9241 3643
9241 984
9241 599
9240 8216
9240 4950
9240 1095
9239 6119
9239 1107
9239 292
9238 461
9238 90
9238 32
9237 2873
9237 676
9237 34
9236 981
9236 325
9236 198
9235 8277
9235 4764
9235 219
9234 9221
9234 7795
9234 2
9233 3816
9233 1478
9233 503
9232 9279
9232 7637
9232 4935
9232 458
9231 2968
9231 1127
9231 331
9230 9934
9230 5888
9230 3099
9230 1580
9229 404
9229 387
9229 83
9228 2740
9228 2003
9228 156
9227 6413
9227 44
9227 10
9226 7667
9226 6346
9226 3873
9225 9665
9225 1260
9225 391
9225 289
9224 5527
9224 3563
9224 1394
9223 3921
9223 3074
9223 356
9222 8735
9222 4252
9222 16
9221 9234
9221 4807
9221 4207
9221 1189
9220 9736
9220 6857
9220 1147
9220 200
9219 8831
9219 4306
9219 27
9218 4533
9218 3352
9218 9
9217 3661
9217 3150
9217 2170
9216 5254
9216 3732
9216 692
9215 8753
9215 5794
9215 352
9214 4467
9214 3460
9214 1271
9213 5307
9213 2709
9213 1488
9212 8381
9212 3700
9212 3199
9211 5978
9211 1412
9211 902
9210 4390
9210 1937
9210 99
9209 1767
9209 1382
9209 670
9208 7224
9208 4169
9208 2360
9207 8857
9207 7639
9207 5842
9206 1838
9206 83
9206 26
9205 6617
9205 1791
9205 737
9204 620
9204 410
9204 100
9203 4731
9203 4658
9203 4263
9202 884
9202 411
9202 72
9201 9684
9201 5474
9201 2177
9201 223
9200 8096
9200 1086
9200 500
9199 2309
9199 538
9199 451
9198 8485
9198 8202
9198 2574
9197 6406
9197 4230
9197 3111
9196 1329
9196 572
9196 533
9195 7583
9195 4031
9195 2274
9194 4733
9194 534
9194 14
9193 6777
9193 1815
9193 55
9192 6416
9192 5978
9192 55
9191 1528
9191 308
9191 274
9190 845
9190 796
9190 193
9189 2836
9189 2136
9189 729
9188 3804
9188 2852
9188 7
9187 1670
9187 1197
9187 303
9186 1529
9186 259
9186 38
9185 5746
9185 2001
9185 88
9184 1576
9184 1395
9184 309
9183 8446
9183 2344
9183 1022
9182 3228
9182 805
9182 241
9181 7768
9181 5592
9181 2708
9180 4948
9180 900
9180 174
9179 4117
9179 1449
9179 1084
9178 8319
9178 4720
9178 2094
9177 5001
9177 2171
9177 744
9176 6944
9176 3507
9176 44
9175 4777
9175 710
9175 290
9174 1716
9174 608
9174 5
9173 7067
9173 1164
9173 141
9172 3129
9172 165
9172 0
9171 5155
9171 174
9171 2
9170 6029
9170 3283
9170 1532
9169 9317
9169 5663
9169 4200
9169 3094
9168 9899
9168 9367
9168 8718
9168 7493
9168 3871
9167 5936
9167 1414
9167 497
9166 3511
9166 3185
9166 1668
9165 5987
9165 5222
9165 3378
9164 9638
9164 9543
9164 4070
9164 3981
9164 3451
9163 9900
9163 7128
9163 1721
9163 449
9162 6373
9162 1458
9162 182
9161 9960
9161 8835
9161 6520
9161 5
9160 8772
9160 8483
9160 342
9159 7385
9159 1984
9159 488
9158 9421
9158 8969
9158 7879
9158 4058
9157 3286
9157 2224
9157 481
9156 1320
9156 443
9156 2
9155 7422
9155 4439
9155 1054
9154 7716
9154 6165
9154 1845
9153 8696
9153 5360
9153 27
9152 7753
9152 4328
9152 3717
9151 527
9151 141
9151 92
9150 5389
9150 5186
9150 1706
9149 9473
9149 9141
9149 3291
9149 176
9148 1664
9148 499
9148 7
9147 6411
9147 4348
9147 9
9146 3127
9146 380
9146 316
9145 5592
9145 5202
9145 1102
9144 4649
9144 2019
9144 474
9143 9032
9143 8698
9143 851
9142 6973
9142 5679
9142 869
9141 9970
9141 9149
9141 8899
9141 4214
9141 100
9140 7658
9140 2342
9140 76
9139 5983
9139 2117
9139 5
9138 384
9138 69
9138 13
9137 2781
9137 77
9137 0
9136 2933
9136 2140
9136 1767
9135 6121
9135 5211
9135 212
9134 9278
9134 5086
9134 3304
9134 2860
9133 3274
9133 2329
9133 591
9132 9922
9132 9555
9132 2438
9132 2133
9132 45
9131 4573
9131 2333
9131 303
9130 6054
9130 135
9130 36
9129 9094
9129 8516
9129 7016
9128 9324
9128 8017
9128 1430
9128 977
9127 7884
9127 4128
9127 145
9126 7280
9126 6639
9126 552
9125 7140
9125 333
9125 77
9124 3215
9124 767
9124 5
9123 6747
9123 778
9123 140
9122 5550
9122 196
9122 90
9121 5027
9121 4179
9121 615
9120 9942
9120 6108
9120 527
9120 169
9119 5878
9119 5664
9119 1125
9118 9585
9118 7348
9118 7061
9118 3727
9117 6715
9117 1960
9117 264
9116 7651
9116 2101
9116 393
9115 9027
9115 3520
9115 2613
9114 4452
9114 1277
9114 466
9113 5383
9113 1171
9113 782
9112 9697
9112 7772
9112 6421
9112 4255
9111 3799
9111 1801
9111 336
9110 6452
9110 1228
9110 198
9109 7889
9109 6872
9109 322
9108 7130
9108 5907
9108 2003
9107 4009
9107 2881
9107 544
9106 9307
9106 6896
9106 3564
9106 32
9105 8645
9105 8565
9105 2728
9104 6945
9104 6416
9104 806
9103 5657
9103 1309
9103 603
9102 7565
9102 171
9102 140
9101 2036
9101 192
9101 6
9100 6480
9100 2345
9100 826
9099 6140
9099 5463
9099 280
9098 3352
9098 1961
9098 203
9097 6095
9097 1638
9097 1338
9096 7253
9096 2036
9096 77
9095 743
9095 518
9095 308
9094 9129
9094 4915
9094 2595
9094 1835
9093 8107
9093 7244
9093 935
9092 8971
9092 3562
9092 1050
9091 5244
9091 3340
9091 1664
9090 5971
9090 1974
9090 1320
9089 9599
9089 3291
9089 3157
9089 237
9088 8617
9088 3920
9088 1681
9087 2134
9087 836
9087 5
9086 6258
9086 1722
9086 1091
9085 7021
9085 3316
9085 52
9084 2047
9084 459
9084 83
9083 4604
9083 3733
9083 230
9082 8891
9082 2003
9082 60
9081 2776
9081 2583
9081 1328
9080 3801
9080 488
9080 43
9079 4825
9079 3361
9079 935
9078 3976
9078 3595
9078 204
9077 9710
9077 5713
9077 2405
9077 2275
9076 4540
9076 4098
9076 1050
9075 7442
9075 1251
9075 271
9074 8172
9074 5670
9074 3513
9073 325
9073 100
9073 2
9072 1250
9072 94
9072 20
9071 9772
9071 9725
9071 2895
9071 2448
9071 1428
9070 1698
9070 1204
9070 56
9069 7792
9069 6998
9069 4045
9068 8425
9068 1046
9068 4
9067 2953
9067 1702
9067 3
9066 1976
9066 1950
9066 454
9065 9836
9065 7697
9065 5816
9065 1668
9064 5734
9064 1199
9064 847
9063 9388
9063 2515
9063 705
9063 403
9062 7272
9062 826
9062 11
9061 6944
9061 3186
9061 4
9060 9510
9060 7920
9060 1454
9060 310
9059 7359
9059 7095
9059 0
9058 8475
9058 3736
9058 107
9057 667
9057 552
9057 150
9056 9506
9056 7683
9056 6993
9056 4796
9055 7849
9055 4522
9055 543
9054 1689
9054 826
9054 264
9053 4145
9053 1656
9053 78
9052 3907
9052 695
9052 5
9051 8101
9051 7145
9051 7050
9050 7111
9050 4562
9050 3482
9049 2692
9049 117
9049 47
9048 7229
9048 934
9048 433
9047 7461
9047 1666
9047 5
9046 3070
9046 2136
9046 1756
9045 3770
9045 2105
9045 748
9044 8112
9044 2980
9044 415
9043 9876
9043 7476
9043 1667
9043 590
9042 6140
9042 2028
9042 1483
9041 3185
9041 2930
9041 1211
9040 8594
9040 4162
9040 3054
9039 6887
9039 5900
9039 5649
9038 2709
9038 577
9038 44
9037 7726
9037 2990
9037 412
9036 7084
9036 1648
9036 406
9035 196
9035 90
9035 27
9034 6169
9034 3162
9034 1432
9033 9998
9033 7580
9033 1584
9033 174
9032 9578
9032 9143
9032 5818
9032 3844
9032 5
9031 7910
9031 7370
9031 5371
9030 6184
9030 1461
9030 606
9029 9598
9029 7278
9029 3891
9029 1550
9028 5472
9028 1959
9028 530
9027 9115
9027 1271
9027 99
9027 6
9026 1307
9026 241
9026 2
9025 6402
9025 3933
9025 2837
9024 9347
9024 3968
9024 2948
9024 46
9023 9954
9023 7604
9023 1801
9023 14
9022 2413
9022 380
9022 5
9021 6622
9021 6334
9021 110
9020 1775
9020 738
9020 9
9019 5085
9019 3489
9019 1264
9018 3515
9018 1238
9018 673
9017 8525
9017 4676
9017 1382
9016 9678
9016 8121
9016 1309
9016 0
9015 1043
9015 918
9015 296
9014 3671
9014 3012
9014 2196
9013 1156
9013 421
9013 186
9012 6294
9012 3279
9012 876
9011 2004
9011 1040
9011 19
9010 9775
9010 3158
9010 2379
9010 1704
9009 3007
9009 282
9009 225
9008 5547
9008 1628
9008 1026
9007 6538
9007 6440
9007 1049
9006 7672
9006 1134
9006 305
9005 7527
9005 6549
9005 626
9004 9331
9004 4569
9004 2483
9004 393
9003 3756
9003 3610
9003 184
9002 5891
9002 1934
9002 120
9001 3014
9001 1296
9001 258
9000 9730
9000 6866
9000 1942
9000 604
8999 3677
8999 3263
8999 33
8998 8284
8998 955
8998 572
8997 8468
8997 2439
8997 44
8996 3421
8996 1012
8996 33
8995 5151
8995 3571
8995 176
8994 7309
8994 5246
8994 2906
8993 5386
8993 430
8993 14
8992 9249
8992 6145
8992 100
8992 97
8991 9449
8991 4224
8991 239
8991 81
8990 6314
8990 1476
8990 348
8989 7029
8989 524
8989 19
8988 7001
8988 6896
8988 2541
8987 1694
8987 751
8987 633
8986 8373
8986 690
8986 221
8985 6540
8985 5799
8985 559
8984 5900
8984 5108
8984 1030
8983 4924
8983 1597
8983 1032
8982 6697
8982 2035
8982 107
8981 7033
8981 648
8981 158
8980 6522
8980 154
8980 142
8979 6553
8979 5263
8979 141
8978 2301
8978 100
8978 55
8977 1485
8977 10
8977 7
8976 2708
8976 1503
8976 591
8975 8053
8975 5863
8975 1819
8974 9412
8974 5575
8974 4809
8974 1375
8973 7385
8973 2239
8973 1564
8972 5813
8972 2150
8972 199
8971 9092
8971 2508
8971 1695
8971 603
8970 5144
8970 2530
8970 470
8969 9158
8969 3940
8969 3709
8969 3197
8968 1162
8968 120
8968 99
8967 4068
8967 1375
8967 1151
8966 9997
8966 6424
8966 5059
8966 3352
8965 4800
8965 4064
8965 2718
8964 5170
8964 4692
8964 4641
8963 5402
8963 1675
8963 1633
8962 2892
8962 2741
8962 2586
8961 8122
8961 183
8961 169
8960 8698
8960 2570
8960 707
8959 4424
8959 2953
8959 977
8958 9605
8958 6286
8958 4801
8958 3554
8957 5073
8957 1142
8957 285
8956 7322
8956 1812
8956 150
8955 5184
8955 4496
8955 345
8954 5371
8954 1007
8954 690
8953 7669
8953 1349
8953 32
8952 8183
8952 7272
8952 4
8951 7190
8951 5123
8951 162
8950 8458
8950 470
8950 444
8949 9364
8949 3233
8949 1427
8949 39
8948 9580
8948 3073
8948 275
8948 50
8947 4233
8947 3289
8947 225
8946 4049
8946 2461
8946 1133
8945 7954
8945 4763
8945 1372
8944 6842
8944 5284
8944 3033
8943 2962
8943 1194
8943 287
8942 5677
8942 2776
8942 2622
8941 8855
8941 4759
8941 11
8940 6362
8940 4432
8940 895
8939 7465
8939 3205
8939 345
8938 7331
8938 2580
8938 1063
8937 8872
8937 105
8937 9
8936 7607
8936 5406
8936 507
8935 616
8935 105
8935 60
8934 8840
8934 7163
8934 1657
8933 7687
8933 6950
8933 1767
8932 6167
8932 2493
8932 931
8931 6211
8931 824
8931 591
8930 9302
8930 7956
8930 6268
8930 1965
8929 4225
8929 3217
8929 3130
8928 4364
8928 4246
8928 1585
8927 4863
8927 3731
8927 383
8926 8831
8926 7984
8926 667
8925 9886
8925 9881
8925 6790
8925 4442
8925 267
8924 7213
8924 142
8924 91
8923 7009
8923 612
8923 211
8922 4716
8922 2349
8922 137
8921 6900
8921 1163
8921 17
8920 8478
8920 2876
8920 799
8919 8524
8919 3007
8919 375
8918 7260
8918 3985
8918 3687
8917 8082
8917 3897
8917 274
8916 7796
8916 5046
8916 1036
8915 4727
8915 458
8915 414
8914 3922
8914 3645
8914 3222
8913 1159
8913 951
8913 473
8912 8172
8912 2496
8912 1424
8911 6173
8911 5202
8911 834
8910 1534
8910 640
8910 227
8909 6770
8909 4157
8909 274
8908 6016
8908 142
8908 55
8907 7652
8907 6401
8907 416
8906 2546
8906 1351
8906 670
8905 2763
8905 683
8905 264
8904 3005
8904 2918
8904 246
8903 8233
8903 7265
8903 1087
8902 1667
8902 1275
8902 1126
8901 3553
8901 2560
8901 1576
8900 6919
8900 2923
8900 2365
8899 9141
8899 3515
8899 35
8899 7
8898 9327
8898 3538
8898 490
8898 95
8897 4627
8897 203
8897 0
8896 5034
8896 1016
8896 506
8895 9692
8895 2169
8895 1983
8895 901
8894 4406
8894 3105
8894 104
8893 9386
8893 2834
8893 2487
8893 2344
8892 7822
8892 883
8892 69
8891 9082
8891 1833
8891 1465
8891 203
8890 595
8890 82
8890 0
8889 4164
8889 3945
8889 674
8888 8192
8888 153
8888 100
8887 6969
8887 2550
8887 72
8886 8591
8886 6297
8886 4059
8885 820
8885 583
8885 6
8884 4627
8884 2973
8884 629
8883 5485
8883 4294
8883 193
8882 7561
8882 150
8882 12
8881 2741
8881 668
8881 142
8880 9726
8880 9646
8880 7817
8880 2391
8880 338
8879 6673
8879 522
8879 403
8878 8691
8878 5911
8878 5494
8877 4250
8877 2749
8877 2274
8876 4883
8876 666
8876 9
8875 4226
8875 4045
8875 1347
8874 9965
8874 8134
8874 6754
8874 1164
8873 7204
8873 851
8873 356
8872 8937
8872 7478
8872 6070
8872 3715
8871 3199
8871 1959
8871 1301
8870 2128
8870 637
8870 291
8869 8603
8869 3767
8869 3622
8868 5960
8868 1362
8868 449
8867 8427
8867 7471
8867 80
8866 6402
8866 2172
8866 55
8865 122
8865 42
8865 19
8864 6337
8864 4633
8864 403
8863 2461
8863 1075
8863 864
8862 8526
8862 7823
8862 2301
8861 7582
8861 2049
8861 1209
8860 8389
8860 1430
8860 369
8859 5136
8859 5062
8859 27
8858 2722
8858 1111
8858 581
8857 9207
8857 4668
8857 4527
8857 2413
8856 8838
8856 850
8856 204
8855 8941
8855 4051
8855 2577
8855 12
8854 4424
8854 2852
8854 683
8853 5314
8853 1788
8853 1
8852 7164
8852 2806
8852 347
8851 2873
8851 2400
8851 356
8850 6750
8850 2463
8850 388
8849 4383
8849 1650
8849 1472
8848 7598
8848 2427
8848 16
8847 4163
8847 3275
8847 1750
8846 5569
8846 2855
8846 130
8845 408
8845 280
8845 126
8844 5220
8844 3412
8844 626
8843 3222
8843 3195
8843 131
8842 5392
8842 3800
8842 123
8841 3332
8841 1832
8841 348
8840 9549
8840 9470
8840 8934
8840 3588
8840 1745
8840 1012
8839 4584
8839 367
8839 23
8838 8856
8838 4328
8838 645
8838 38
8837 6840
8837 1593
8837 49
8836 5922
8836 1049
8836 926
8835 9161
8835 3282
8835 3088
8835 77
8834 8508
8834 5505
8834 3787
8833 9844
8833 6549
8833 5592
8833 734
8832 1568
8832 1181
8832 429
8831 9219
8831 8926
8831 5540
8831 2935
8831 11
8830 1987
8830 95
8830 87
8829 6145
8829 3334
8829 81
8828 8350
8828 8094
8828 277
8827 7993
8827 526
8827 309
8826 9437
8826 621
8826 100
8826 0
8825 6966
8825 4845
8825 337
8824 7209
8824 3287
8824 3241
8823 4069
8823 1004
8823 297
8822 6905
8822 1855
8822 1729
8821 5649
8821 3687
8821 3569
8820 6936
8820 545
8820 60
8819 552
8819 188
8819 58
8818 7287
8818 4720
8818 1481
8817 6511
8817 3725
8817 1675
8816 3412
8816 1838
8816 462
8815 6563
8815 5907
8815 88
8814 8758
8814 4352
8814 77
8813 2185
8813 1677
8813 1385
8812 6967
8812 4844
8812 132
8811 6089
8811 3432
8811 532
8810 1779
8810 1639
8810 309
8809 7422
8809 4885
8809 2324
8808 7822
8808 1965
8808 235
8807 2100
8807 1779
8807 1607
8806 8010
8806 5912
8806 1223
8805 2743
8805 2597
8805 1687
8804 7317
8804 6833
8804 177
8803 4640
8803 115
8803 44
8802 9838
8802 3709
8802 1209
8802 227
8801 8719
8801 8591
8801 150
8800 5426
8800 4652
8800 14
8799 5688
8799 4924
8799 252
8798 8306
8798 626
8798 342
8797 3666
8797 2896
8797 1650
8796 8332
8796 1545
8796 216
8795 6966
8795 6651
8795 953
8794 6730
8794 4429
8794 4387
8793 8474
8793 3886
8793 3292
8792 3795
8792 2708
8792 17
8791 2223
8791 237
8791 110
8790 5320
8790 2682
8790 9
8789 2000
8789 1459
8789 292
8788 4542
8788 2233
8788 37
8787 7942
8787 5498
8787 5021
8786 3842
8786 1553
8786 112
8785 7909
8785 4768
8785 2652
8784 2202
8784 1442
8784 14
8783 9284
8783 2352
8783 1494
8783 478
8782 2063
8782 616
8782 253
8781 6192
8781 6074
8781 1733
8780 8608
8780 4865
8780 208
8779 2335
8779 1795
8779 1242
8778 6147
8778 2261
8778 137
8777 7654
8777 2370
8777 1287
8776 2522
8776 109
8776 64
8775 4991
8775 2216
8775 779
8774 6575
8774 5263
8774 2104
8773 8663
8773 2333
8773 418
8772 9160
8772 5682
8772 1577
8772 385
8771 2633
8771 150
8771 138
8770 7995
8770 7026
8770 2354
8769 5133
8769 4635
8769 1846
8768 9687
8768 6959
8768 4536
8768 2426
8767 6611
8767 27
8767 4
8766 3507
8766 253
8766 82
8765 9348
8765 8594
8765 422
8765 309
8764 7410
8764 7132
8764 3463
8763 9780
8763 3578
8763 1331
8763 806
8762 7504
8762 2435
8762 984
8761 9369
8761 3307
8761 2722
8761 184
8760 2888
8760 1079
8760 539
8759 3292
8759 1381
8759 199
8758 8814
8758 7968
8758 4646
8758 2854
8757 9878
8757 7807
8757 4045
8757 11
8756 5169
8756 4143
8756 3595
8755 4355
8755 2579
8755 500
8754 3810
8754 1400
8754 994
8753 9215
8753 3795
8753 3690
8753 0
8752 8692
8752 6670
8752 2436
8751 5813
8751 5503
8751 2714
8750 8256
8750 1750
8750 73
8749 9450
8749 5994
8749 330
8749 238
8748 9288
8748 8656
8748 5919
8748 628
8747 2271
8747 263
8747 115
8746 4312
8746 4052
8746 1942
8745 1265
8745 263
8745 54
8744 8273
8744 6255
8744 5488
8743 884
8743 201
8743 66
8742 8736
8742 7357
8742 2
8741 9511
8741 1805
8741 1324
8741 331
8740 9817
8740 2325
8740 109
8740 90
8739 5398
8739 4049
8739 1766
8738 5439
8738 3062
8738 621
8737 7917
8737 935
8737 172
8736 8742
8736 6735
8736 5055
8736 542
8735 9753
8735 9222
8735 5892
8735 2021
8735 3
8734 4216
8734 103
8734 0
8733 8012
8733 6375
8733 21
8732 3405
8732 809
8732 57
8731 8520
8731 3821
8731 275
8730 818
8730 221
8730 6
8729 3598
8729 1304
8729 169
8728 9713
8728 8687
8728 2601
8728 13
8727 9440
8727 6659
8727 3795
8727 361
8726 8013
8726 7382
8726 89
8725 5051
8725 5025
8725 448
8724 9847
8724 4040
8724 1753
8724 200
8723 6682
8723 895
8723 63
8722 1648
8722 1395
8722 110
8721 9704
8721 175
8721 7
8721 3
8720 4975
8720 23
8720 15
8719 8801
8719 7973
8719 7441
8719 2419
8718 9168
8718 5731
8718 4581
8718 2407
8717 7785
8717 3488
8717 1458
8716 5423
8716 2326
8716 1055
8715 3307
8715 2646
8715 1129
8714 5034
8714 187
8714 12
8713 1069
8713 331
8713 0
8712 1028
8712 50
8712 7
8711 7805
8711 7179
8711 181
8710 2829
8710 328
8710 274
8709 4736
8709 2179
8709 65
8708 9813
8708 8688
8708 5582
8708 1322
8707 4264
8707 2231
8707 659
8706 7786
8706 1110
8706 393
8705 3555
8705 2432
8705 210
8704 7253
8704 6877
8704 6415
8703 9704
8703 8460
8703 2198
8703 2029
8702 8580
8702 6716
8702 3
8701 1412
8701 876
8701 713
8700 7606
8700 2203
8700 526
8699 7532
8699 423
8699 30
8698 9608
8698 9143
8698 8960
8698 2709
8698 365
8698 63
8697 4606
8697 3995
8697 453
8696 9153
8696 3800
8696 1615
8696 241
8695 6574
8695 4861
8695 2989
8694 3513
8694 2681
8694 621
8693 4310
8693 2409
8693 7
8692 8752
8692 7604
8692 2228
8692 1217
8691 8878
8691 3492
8691 266
8691 9
8690 7399
8690 1107
8690 618
8689 6633
8689 4840
8689 2341
8688 8708
8688 3296
8688 1047
8688 666
8687 8728
8687 5582
8687 4127
8687 28
8686 3778
8686 1695
8686 23
8685 7708
8685 2028
8685 1715
8684 7158
8684 667
8684 10
8683 4971
8683 3309
8683 1272
8682 3180
8682 2826
8682 82
8681 7818
8681 3589
8681 775
8680 8624
8680 6759
8680 1306
8679 3744
8679 3647
8679 472
8678 3352
8678 2831
8678 2290
8677 7495
8677 639
8677 527
8676 6638
8676 988
8676 5
8675 4612
8675 3241
8675 740
8674 4980
8674 1556
8674 1506
8673 3035
8673 176
8673 74
8672 4478
8672 2887
8672 489
8671 2646
8671 438
8671 158
8670 8018
8670 2185
8670 1131
8669 496
8669 437
8669 362
8668 5152
8668 2525
8668 166
8667 3399
8667 2634
8667 2026
8666 1122
8666 593
8666 19
8665 8156
8665 2680
8665 1883
8664 4374
8664 2931
8664 860
8663 8773
8663 2495
8663 602
8663 302
8662 9309
8662 7641
8662 2716
8662 141
8661 5992
8661 5304
8661 742
8660 3130
8660 1864
8660 389
8659 5252
8659 258
8659 230
8658 6029
8658 2365
8658 263
8657 4890
8657 1976
8657 478
8656 8748
8656 5960
8656 673
8656 592
8655 1257
8655 572
8655 91
8654 475
8654 375
8654 106
8653 6546
8653 818
8653 342
8652 3911
8652 600
8652 5
8651 5851
8651 1864
8651 708
8650 7605
8650 1015
8650 416
8649 4354
8649 2989
8649 608
8648 9385
8648 5865
8648 4857
8648 1885
8647 5082
8647 2438
8647 153
8646 5984
8646 1075
8646 16
8645 9105
8645 4057
8645 4014
8645 110
8644 6854
8644 377
8644 263
8643 9932
8643 4169
8643 129
8643 19
8642 7565
8642 4369
8642 2808
8641 8190
8641 6095
8641 136
8640 636
8640 502
8640 114
8639 5606
8639 3756
8639 347
8638 6271
8638 2241
8638 259
8637 6556
8637 643
8637 494
8636 2981
8636 2526
8636 89
8635 5361
8635 3516
8635 2058
8634 1090
8634 1086
8634 513
8633 3816
8633 3398
8633 1533
8632 248
8632 16
8632 0
8631 4770
8631 474
8631 399
8630 4916
8630 2280
8630 260
8629 8290
8629 3715
8629 113
8628 3974
8628 1162
8628 280
8627 1990
8627 953
8627 158
8626 3930
8626 2525
8626 2258
8625 4924
8625 4763
8625 300
8624 8680
8624 7768
8624 4670
8624 89
8623 2308
8623 1844
8623 742
8622 3054
8622 2583
8622 60
8621 7745
8621 1674
8621 4
8620 7653
8620 3129
8620 0
8619 3185
8619 1270
8619 413
8618 8074
8618 6165
8618 490
8617 9088
8617 6549
8617 3917
8617 3221
8616 3668
8616 2767
8616 1197
8615 6698
8615 2077
8615 47
8614 8178
8614 4147
8614 92
8613 9255
8613 3404
8613 500
8613 28
8612 5596
8612 2935
8612 255
8611 3612
8611 3158
8611 2023
8610 4592
8610 1670
8610 407
8609 4016
8609 3579
8609 1520
8608 9837
8608 8780
8608 873
8608 111
8608 7
8607 8038
8607 7220
8607 2404
8606 1435
8606 1338
8606 84
8605 5875
8605 1287
8605 579
8604 8091
8604 11
8604 5
8603 8869
8603 275
8603 189
8603 86
8602 8447
8602 5421
8602 192
8601 5982
8601 5059
8601 458
8600 9767
8600 998
8600 437
8600 139
8599 4341
8599 456
8599 207
8598 9716
8598 5864
8598 3611
8598 1645
8597 7178
8597 4534
8597 766
8596 9936
8596 2529
8596 502
8596 300
8595 7363
8595 4079
8595 0
8594 9040
8594 8765
8594 4498
8594 4492
8594 1163
8593 5000
8593 1530
8593 531
8592 2326
8592 932
8592 782
8591 8886
8591 8801
8591 6718
8591 3701
8591 28
8590 2817
8590 79
8590 11
8589 2812
8589 118
8589 53
8588 2435
8588 1507
8588 11
8587 720
8587 14
8587 4
8586 2531
8586 284
8586 14
8585 4846
8585 1064
8585 343
8584 2801
8584 1957
8584 1646
8583 3374
8583 2655
8583 2089
8582 2577
8582 469
8582 193
8581 1934
8581 1825
8581 23
8580 8702
8580 7112
8580 1145
8580 50
8579 4840
8579 3571
8579 58
8578 3622
8578 328
8578 75
8577 6489
8577 5438
8577 4483
8576 9852
8576 9612
8576 2794
8576 688
8576 86
8575 5505
8575 1002
8575 357
8574 3530
8574 901
8574 6
8573 9977
8573 1699
8573 967
8573 23
8572 2431
8572 2060
8572 585
8571 9899
8571 5125
8571 1615
8571 1567
8570 7521
8570 184
8570 72
8569 4770
8569 2959
8569 847
8568 8472
8568 5987
8568 881
8567 6918
8567 836
8567 518
8566 6817
8566 1124
8566 444
8565 9105
8565 7611
8565 4899
8565 3646
8564 3687
8564 2501
8564 464
8563 4875
8563 3597
8563 4
8562 6160
8562 3721
8562 3307
8561 4625
8561 4470
8561 41
8560 6301
8560 5855
8560 3154
8559 7293
8559 1897
8559 263
8558 7841
8558 3619
8558 2726
8557 7946
8557 7909
8557 1306
8556 4875
8556 3559
8556 683
8555 5494
8555 1775
8555 94
8554 3263
8554 430
8554 260
8553 7156
8553 6879
8553 778
8552 7930
8552 2799
8552 5
8551 7328
8551 747
8551 410
8550 5718
8550 1942
8550 307
8549 7136
8549 4322
8549 2334
8548 8442
8548 6047
8548 69
8547 6799
8547 3338
8547 1843
8546 5887
8546 2988
8546 2112
8545 5547
8545 5427
8545 3600
8544 9358
8544 1664
8544 698
8544 478
8543 7461
8543 2131
8543 279
8542 7330
8542 2945
8542 82
8541 7341
8541 3921
8541 251
8540 3876
8540 2468
8540 63
8539 2146
8539 1875
8539 316
8538 8053
8538 3144
8538 2708
8537 2645
8537 1190
8537 337
8536 8371
8536 7266
8536 1429
8535 3427
8535 2857
8535 194
8534 5708
8534 4542
8534 2499
8533 6563
8533 207
8533 169
8532 9628
8532 9499
8532 5614
8532 98
8532 89
8531 5660
8531 267
8531 147
8530 1424
8530 1032
8530 748
8529 2470
8529 294
8529 141
8528 7924
8528 265
8528 122
8527 4158
8527 3897
8527 306
8526 8862
8526 5620
8526 4090
8526 0
8525 9017
8525 2605
8525 2352
8525 583
8524 8919
8524 5891
8524 5489
8524 4071
8523 6613
8523 3581
8523 2743
8522 4412
8522 4300
8522 2764
8521 6057
8521 3460
8521 2472
8520 8731
8520 5444
8520 5296
8520 1786
8519 6532
8519 4228
8519 7
8518 4869
8518 2573
8518 590
8517 5508
8517 2213
8517 117
8516 9129
8516 582
8516 367
8516 174
8515 6839
8515 4614
8515 135
8514 4110
8514 3630
8514 2340
8513 8489
8513 3968
8513 1121
8512 4109
8512 3139
8512 2940
8511 415
8511 225
8511 184
8510 8040
8510 4609
8510 3945
8509 9697
8509 3612
8509 342
8509 262
8508 8834
8508 5033
8508 215
8508 126
8507 8365
8507 380
8507 240
8506 4607
8506 648
8506 20
8505 7840
8505 5614
8505 5
8504 5713
8504 2983
8504 6
8503 8353
8503 503
8503 197
8502 2706
8502 1883
8502 1629
8501 9271
8501 3857
8501 1853
8501 746
8500 9540
8500 6513
8500 1794
8500 0
8499 7721
8499 5819
8499 391
8498 726
8498 196
8498 17
8497 8074
8497 2804
8497 442
8496 6237
8496 5775
8496 231
8495 1766
8495 1450
8495 310
8494 3304
8494 2767
8494 1352
8493 2682
8493 2573
8493 1046
8492 9902
8492 2110
8492 1982
8492 720
8491 7937
8491 3154
8491 1373
8490 3628
8490 3604
8490 723
8489 8513
8489 3021
8489 413
8489 7
8488 3721
8488 1728
8488 72
8487 6615
8487 2798
8487 100
8486 5333
8486 97
8486 3
8485 9396
8485 9198
8485 3925
8485 225
8485 76
8484 3164
8484 1639
8484 559
8483 9160
8483 2965
8483 782
8483 439
8482 4731
8482 2374
8482 156
8481 3791
8481 2200
8481 717
8480 6707
8480 1124
8480 150
8479 4428
8479 3815
8479 261
8478 8920
8478 5530
8478 5314
8478 6
8477 2327
8477 1076
8477 490
8476 7627
8476 5292
8476 12
8475 9058
8475 2435
8475 2376
8475 126
8474 8793
8474 6021
8474 5415
8474 623
8473 3926
8473 796
8473 176
8472 8568
8472 3003
8472 2213
8472 78
8471 7810
8471 5193
8471 411
8470 6948
8470 1483
8470 319
8469 2582
8469 1526
8469 560
8468 8997
8468 5682
8468 2689
8468 8
8467 304
8467 172
8467 27
8466 5406
8466 859
8466 181
8465 6824
8465 2160
8465 1214
8464 6158
8464 5273
8464 4143
8463 7274
8463 4904
8463 891
8462 6204
8462 2801
8462 0
8461 9298
8461 5131
8461 1819
8461 110
8460 8703
8460 7665
8460 458
8460 7
8459 4799
8459 742
8459 544
8458 8950
8458 2859
8458 1574
8458 18
8457 3029
8457 190
8457 3
8456 8142
8456 3288
8456 806
8455 6725
8455 1475
8455 1109
8454 556
8454 404
8454 142
8453 7350
8453 2952
8453 1102
8452 691
8452 480
8452 35
8451 6922
8451 6058
8451 998
8450 5081
8450 4442
8450 691
8449 510
8449 271
8449 186
8448 7708
8448 5094
8448 4776
8447 8602
8447 8224
8447 2381
8447 1103
8446 9183
8446 1555
8446 61
8446 37
8445 4499
8445 2805
8445 88
8444 8091
8444 4099
8444 7
8443 3006
8443 56
8443 37
8442 8548
8442 8015
8442 5268
8442 3812
8441 8300
8441 1341
8441 142
8440 3524
8440 2556
8440 2486
8439 7389
8439 522
8439 124
8438 6212
8438 2556
8438 360
8437 8321
8437 8151
8437 142
8436 9597
8436 3819
8436 2377
8436 320
8435 3816
8435 1687
8435 46
8434 2895
8434 203
8434 157
8433 4209
8433 4006
8433 2493
8432 7932
8432 2127
8432 1933
8431 4981
8431 2874
8431 1893
8430 3477
8430 2043
8430 1510
8429 7552
8429 6826
8429 5531
8428 5385
8428 387
8428 328
8427 8867
8427 4990
8427 886
8427 278
8426 1307
8426 760
8426 324
8425 9068
8425 6949
8425 2587
8425 124
8424 5848
8424 568
8424 0
8423 1681
8423 642
8423 6
8422 6900
8422 5816
8422 342
8421 6508
8421 1784
8421 5
8420 7770
8420 6917
8420 100
8419 5090
8419 4147
8419 506
8418 3910
8418 406
8418 41
8417 5950
8417 4514
8417 1216
8416 3240
8416 3117
8416 190
8415 5052
8415 1708
8415 1418
8414 7064
8414 120
8414 26
8413 4816
8413 3110
8413 459
8412 4659
8412 569
8412 51
8411 7560
8411 3686
8411 1805
8410 6667
8410 5228
8410 4312
8409 1188
8409 1063
8409 336
8408 9696
8408 5108
8408 1072
8408 416
8407 2120
8407 1602
8407 1599
8406 7672
8406 5720
8406 260
8405 7024
8405 4438
8405 2428
8404 3686
8404 2883
8404 84
8403 2802
8403 1007
8403 641
8402 7556
8402 4468
8402 1711
8401 4257
8401 304
8401 92
8400 5652
8400 4702
8400 2028
8399 6894
8399 6383
8399 6095
8398 2742
8398 1704
8398 457
8397 4674
8397 4344
8397 301
8396 7817
8396 4865
8396 3161
8395 7365
8395 1347
8395 132
8394 8130
8394 2830
8394 897
8393 1893
8393 838
8393 197
8392 6412
8392 4780
8392 145
8391 6312
8391 183
8391 18
8390 2819
8390 2549
8390 1321
8389 9265
8389 8860
8389 7330
8389 6074
8389 834
8388 1704
8388 294
8388 23
8387 3834
8387 3304
8387 142
8386 7052
8386 387
8386 41
8385 5085
8385 4754
8385 39
8384 9576
8384 6895
8384 3263
8384 1648
8383 225
8383 63
8383 23
8382 6078
8382 5313
8382 3319
8381 9212
8381 6453
8381 2633
8381 529
8380 182
8380 30
8380 12
8379 3848
8379 2625
8379 2282
8378 5283
8378 2620
8378 459
8377 5775
8377 2878
8377 895
8376 4886
8376 678
8376 200
8375 5049
8375 3676
8375 881
8374 9730
8374 7258
8374 5635
8374 1026
8373 8986
8373 4948
8373 2518
8373 118
8372 6424
8372 68
8372 17
8371 8536
8371 1906
8371 224
8371 171
8370 6190
8370 2625
8370 1495
8369 7272
8369 5059
8369 2515
8368 6066
8368 1679
8368 1238
8367 7496
8367 863
8367 52
8366 1760
8366 648
8366 41
8365 8507
8365 5427
8365 1454
8365 16
8364 7509
8364 6367
8364 898
8363 9620
8363 5435
8363 3221
8363 128
8362 4921
8362 1856
8362 72
8361 2569
8361 1678
8361 174
8360 1831
8360 716
8360 43
8359 1430
8359 588
8359 131
8358 4078
8358 825
8358 684
8357 7572
8357 3995
8357 16
8356 6407
8356 5359
8356 1178
8355 4464
8355 3228
8355 1025
8354 7779
8354 7220
8354 7028
8353 9391
8353 8503
8353 6920
8353 389
8353 295
8352 5498
8352 3439
8352 993
8351 2745
8351 2036
8351 1170
8350 8828
8350 7287
8350 863
8350 427
8349 9955
8349 3043
8349 1924
8349 1605
8348 7337
8348 2566
8348 575
8347 9489
8347 7595
8347 2813
8347 0
8346 5778
8346 4612
8346 2633
8345 4574
8345 3605
8345 218
8344 3835
8344 2646
8344 953
8343 3481
8343 256
8343 203
8342 5537
8342 1331
8342 487
8341 3469
8341 428
8341 378
8340 6861
8340 1349
8340 18
8339 7174
8339 5052
8339 4522
8338 7858
8338 7027
8338 297
8337 6344
8337 241
8337 38
8336 9372
8336 5347
8336 4248
8336 7
8335 5145
8335 1597
8335 61
8334 1574
8334 690
8334 87
8333 9972
8333 2703
8333 2033
8333 500
8332 8796
8332 8032
8332 4445
8332 60
8331 9298
8331 3706
8331 2094
8331 1125
8330 3406
8330 74
8330 64
8329 9752
8329 9454
8329 9353
8329 4521
8329 3910
8329 2271
8328 3381
8328 2766
8328 712
8327 7871
8327 719
8327 271
8326 2192
8326 1004
8326 708
8325 3752
8325 520
8325 118
8324 8159
8324 7238
8324 5118
8323 5410
8323 578
8323 5
8322 6158
8322 3307
8322 3299
8321 8437
8321 8214
8321 4660
8321 3596
8320 1650
8320 415
8320 291
8319 9281
8319 9178
8319 8140
8319 595
8319 99
8318 8085
8318 5677
8318 2749
8317 5322
8317 502
8317 497
8316 6073
8316 2177
8316 875
8315 5625
8315 2215
8315 880
8314 6310
8314 4757
8314 791
8313 4751
8313 444
8313 379
8312 1699
8312 1402
8312 100
8311 1527
8311 579
8311 148
8310 7228
8310 3661
8310 6
8309 4529
8309 1707
8309 1652
8308 9380
8308 3278
8308 2843
8308 105
8307 6674
8307 5803
8307 662
8306 8798
8306 3639
8306 3282
8306 783
8305 4301
8305 723
8305 16
8304 7260
8304 4556
8304 278
8303 4726
8303 3665
8303 353
8302 7298
8302 5979
8302 4171
8301 1728
8301 837
8301 425
8300 8441
8300 4469
8300 1575
8300 89
8299 7205
8299 3905
8299 514
8298 1615
8298 679
8298 527
8297 1581
8297 1298
8297 278
8296 1620
8296 1252
8296 5
8295 4460
8295 68
8295 26
8294 1090
8294 275
8294 30
8293 2191
8293 1438
8293 1226
8292 7846
8292 7519
8292 5100
8291 7768
8291 6204
8291 33
8290 8629
8290 3582
8290 1887
8290 72
8289 7785
8289 2094
8289 1
8288 4691
8288 599
8288 560
8287 9804
8287 9365
8287 6469
8287 216
8287 1
8286 8066
8286 5107
8286 1531
8285 642
8285 616
8285 578
8284 8998
8284 676
8284 174
8284 100
8283 3994
8283 2873
8283 413
8282 9878
8282 5988
8282 5653
8282 3629
8281 7672
8281 5825
8281 4611
8280 4446
8280 3563
8280 927
8279 2936
8279 2112
8279 91
8278 7547
8278 340
8278 171
8277 9235
8277 1570
8277 1219
8277 887
8276 8223
8276 1604
8276 904
8275 7213
8275 4746
8275 1067
8274 244
8274 46
8274 20
8273 8744
8273 6904
8273 2078
8273 677
8272 5725
8272 872
8272 173
8271 6958
8271 1195
8271 1046
8270 7132
8270 5145
8270 4019
8269 902
8269 723
8269 634
8268 4025
8268 2771
8268 613
8267 3163
8267 77
8267 5
8266 1934
8266 1722
8266 627
8265 1471
8265 249
8265 3
8264 9667
8264 4763
8264 294
8264 4
8263 9427
8263 4489
8263 2575
8263 1456
8262 9533
8262 8236
8262 3154
8262 104
8261 6113
8261 420
8261 366
8260 8113
8260 2271
8260 554
8259 7927
8259 3563
8259 258
8258 1374
8258 606
8258 74
8257 3540
8257 168
8257 27
8256 8750
8256 7758
8256 345
8256 4
8255 5295
8255 256
8255 44
8254 6854
8254 876
8254 221
8253 4168
8253 2854
8253 956
8252 4147
8252 3211
8252 678
8251 6859
8251 5744
8251 1303
8250 6096
8250 1330
8250 349
8249 6820
8249 1030
8249 7
8248 2472
8248 687
8248 416
8247 9546
8247 2755
8247 1023
8247 375
8246 6226
8246 5016
8246 1344
8245 9467
8245 6810
8245 2665
8245 809
8244 3653
8244 689
8244 535
8243 1928
8243 76
8243 21
8242 566
8242 178
8242 57
8241 7134
8241 5961
8241 395
8240 9438
8240 5582
8240 3070
8240 2435
8239 8109
8239 762
8239 74
8238 5591
8238 2420
8238 1588
8237 9800
8237 3739
8237 2497
8237 1298
8236 9504
8236 8262
8236 3424
8236 3178
8236 582
8235 1970
8235 1941
8235 1382
8234 4460
8234 263
8234 150
8233 8903
8233 3003
8233 2651
8233 2064
8232 9619
8232 5413
8232 1416
8232 7
8231 8116
8231 350
8231 41
8230 4604
8230 170
8230 41
8229 502
8229 278
8229 38
8228 9770
8228 2895
8228 1429
8228 336
8227 222
8227 141
8227 0
8226 5311
8226 1621
8226 264
8225 4731
8225 2525
8225 23
8224 8447
8224 2148
8224 1877
8224 192
8223 9774
8223 8276
8223 5281
8223 4982
8223 4
8222 3275
8222 1524
8222 35
8221 7539
8221 6204
8221 6074
8220 5759
8220 71
8220 0
8219 5499
8219 304
8219 188
8218 7969
8218 3923
8218 745
8217 2934
8217 1382
8217 17
8216 9240
8216 7476
8216 503
8216 195
8215 5287
8215 747
8215 100
8214 9397
8214 8321
8214 5856
8214 2974
8214 526
8213 9406
8213 5269
8213 416
8213 33
8212 3654
8212 1647
8212 310
8211 5498
8211 43
8211 7
8210 2097
8210 1750
8210 831
8209 5833
8209 3127
8209 255
8208 2575
8208 1026
8208 697
8207 5596
8207 1622
8207 232
8206 1436
8206 744
8206 219
8205 6797
8205 3880
8205 45
8204 5420
8204 2257
8204 2157
8203 2458
8203 1991
8203 147
8202 9198
8202 7461
8202 2904
8202 2012
8201 2863
8201 1945
8201 7
8200 2786
8200 691
8200 26
8199 7955
8199 2953
8199 28
8198 5103
8198 2896
8198 59
8197 9946
8197 6313
8197 187
8197 1
8196 9692
8196 7174
8196 5663
8196 4821
8195 4165
8195 1669
8195 1432
8194 2435
8194 19
8194 4
8193 3223
8193 677
8193 204
8192 8888
8192 1972
8192 961
8192 792
8191 9857
8191 7847
8191 6146
8191 255
8190 8641
8190 7463
8190 597
8190 575
8189 9951
8189 6565
8189 3137
8189 1873
8188 7310
8188 1831
8188 782
8187 1847
8187 1306
8187 760
8186 4141
8186 3560
8186 246
8185 3275
8185 294
8185 216
8184 6692
8184 5464
8184 1509
8183 8952
8183 3856
8183 1204
8183 140
8182 5710
8182 4407
8182 3128
8181 4649
8181 2142
8181 1734
8180 6752
8180 5225
8180 0
8179 6564
8179 4336
8179 24
8178 8614
8178 6917
8178 6605
8178 588
8177 2333
8177 1591
8177 712
8176 4710
8176 4534
8176 2
8175 3215
8175 77
8175 12
8174 7475
8174 3804
8174 1202
8173 3491
8173 1334
8173 0
8172 9074
8172 8912
8172 4953
8172 219
8172 172
8171 5237
8171 4947
8171 2854
8170 5974
8170 5862
8170 1950
8169 6890
8169 5589
8169 3516
8168 508
8168 262
8168 5
8167 3313
8167 1741
8167 1307
8166 5885
8166 5007
8166 3634
8165 5258
8165 3584
8165 600
8164 9547
8164 6599
8164 5247
8164 292
8163 4949
8163 3130
8163 2238
8162 3136
8162 2339
8162 99
8161 9717
8161 5978
8161 4931
8161 3170
8160 6449
8160 4345
8160 3467
8159 8324
8159 4593
8159 4263
8159 1321
8158 9505
8158 7461
8158 4141
8158 1683
8157 3074
8157 1329
8157 985
8156 9457
8156 8665
8156 7643
8156 4428
8156 4264
8155 6778
8155 2917
8155 1043
8154 6437
8154 4773
8154 1399
8153 2183
8153 661
8153 197
8152 2568
8152 139
8152 108
8151 8437
8151 3527
8151 2412
8151 1180
8150 3280
8150 1725
8150 1711
8149 7973
8149 4530
8149 984
8148 2928
8148 1970
8148 417
8147 3746
8147 1921
8147 176
8146 4235
8146 166
8146 22
8145 5734
8145 1228
8145 202
8144 7847
8144 3595
8144 809
8143 7510
8143 5282
8143 5041
8142 8456
8142 3466
8142 3286
8142 730
8141 2025
8141 718
8141 454
8140 8319
8140 984
8140 7
8140 0
8139 4945
8139 458
8139 430
8138 2946
8138 2813
8138 5
8137 5734
8137 3329
8137 3158
8136 8121
8136 3851
8136 678
8135 5288
8135 3982
8135 187
8134 8874
8134 6659
8134 2535
8134 347
8133 8054
8133 3374
8133 293
8132 9517
8132 5505
8132 1824
8132 83
8131 9628
8131 1066
8131 300
8131 193
8130 8394
8130 7267
8130 6828
8130 5280
8129 2506
8129 134
8129 71
8128 3524
8128 2650
8128 137
8127 6402
8127 6219
8127 1782
8126 9363
8126 2431
8126 537
8126 123
8125 3348
8125 1007
8125 683
8124 9296
8124 6375
8124 870
8124 0
8123 6115
8123 4182
8123 1078
8122 8961
8122 5440
8122 834
8122 28
8121 9016
8121 8136
8121 4619
8121 4121
8121 1873
8120 1538
8120 294
8120 38
8119 7033
8119 2222
8119 8
8118 660
8118 255
8118 14
8117 3960
8117 1171
8117 449
8116 8231
8116 7440
8116 5807
8116 2501
8115 6571
8115 266
8115 228
8114 3643
8114 531
8114 167
8113 8260
8113 1471
8113 270
8113 101
8112 9370
8112 9044
8112 6079
8112 5501
8112 2901
8111 7789
8111 5682
8111 266
8110 7435
8110 5022
8110 186
8109 8239
8109 5518
8109 1890
8109 1390
8108 9778
8108 6309
8108 602
8108 388
8107 9757
8107 9093
8107 2410
8107 1538
8107 621
8106 2767
8106 2325
8106 616
8105 2590
8105 979
8105 763
8104 5602
8104 3916
8104 3648
8103 4668
8103 4018
8103 1958
8102 1636
8102 958
8102 199
8101 9051
8101 1691
8101 1229
8101 340
8100 486
8100 279
8100 23
8099 6239
8099 1400
8099 983
8098 4290
8098 1046
8098 532
8097 2745
8097 2362
8097 8
8096 9200
8096 627
8096 70
8096 37
8095 2428
8095 1629
8095 217
8094 9831
8094 8828
8094 1229
8094 786
8094 52
8093 7252
8093 5158
8093 4866
8092 9468
8092 6714
8092 6622
8092 639
8091 8604
8091 8444
8091 7525
8091 5596
8091 354
8090 2279
8090 241
8090 131
8089 1611
8089 578
8089 89
8088 5864
8088 5030
8088 2829
8087 3427
8087 316
8087 97
8086 9484
8086 4403
8086 1197
8086 186
8085 8318
8085 5439
8085 520
8085 145
8084 4848
8084 2124
8084 826
8083 7427
8083 747
8083 142
8082 8917
8082 6899
8082 5807
8082 5188
8081 9479
8081 7626
8081 2843
8081 204
8080 4137
8080 2760
8080 2054
8079 711
8079 122
8079 112
8078 1227
8078 871
8078 80
8077 7257
8077 5277
8077 1674
8076 6283
8076 3043
8076 867
8075 9935
8075 6501
8075 6005
8075 518
8074 8618
8074 8497
8074 7588
8074 4986
8074 332
8073 3282
8073 1284
8073 304
8072 2136
8072 1658
8072 154
8071 5885
8071 3443
8071 1062
8070 214
8070 203
8070 33
8069 3837
8069 1658
8069 7
8068 4698
8068 3027
8068 1824
8067 4106
8067 2579
8067 755
8066 8286
8066 5836
8066 3230
8066 255
8065 1624
8065 294
8065 9
8064 4673
8064 1266
8064 653
8063 7790
8063 6341
8063 5982
8062 8008
8062 5967
8062 747
8061 6195
8061 385
8061 104
8060 4681
8060 1315
8060 26
8059 3311
8059 2034
8059 1963
8058 3600
8058 947
8058 655
8057 6385
8057 224
8057 182
8056 7739
8056 6379
8056 272
8055 9977
8055 5402
8055 4643
8055 2374
8054 8133
8054 5523
8054 770
8054 164
8053 8975
8053 8538
8053 5708
8053 1654
8053 83
8052 6388
8052 6007
8052 5
8051 5264
8051 202
8051 51
8050 4180
8050 3031
8050 1171
8049 4969
8049 318
8049 161
8048 7824
8048 3464
8048 3405
8047 826
8047 288
8047 7
8046 2925
8046 1984
8046 1515
8045 4032
8045 258
8045 37
8044 6726
8044 3197
8044 1068
8043 7070
8043 6014
8043 474
8042 3228
8042 2161
8042 2000
8041 7158
8041 5048
8041 7
8040 9897
8040 8510
8040 3060
8040 1750
8040 1281
8039 7776
8039 3074
8039 160
8038 8607
8038 4899
8038 4726
8038 566
8037 4343
8037 2748
8037 80
8036 6494
8036 3552
8036 2283
8035 3678
8035 1846
8035 4
8034 6707
8034 1987
8034 1799
8033 6797
8033 6384
8033 786
8032 8332
8032 7694
8032 2833
8032 620
8031 2936
8031 768
8031 328
8030 5609
8030 382
8030 187
8029 7784
8029 4869
8029 33
8028 781
8028 38
8028 4
8027 5420
8027 3965
8027 30
8026 7824
8026 3923
8026 88
8025 6601
8025 316
8025 4
8024 905
8024 776
8024 285
8023 7384
8023 6684
8023 565
8022 7598
8022 3055
8022 2185
8021 6087
8021 3378
8021 306
8020 7011
8020 2304
8020 1789
8019 7685
8019 4584
8019 84
8018 8670
8018 7917
8018 638
8018 10
8017 9128
8017 4424
8017 556
8017 462
8016 6949
8016 6393
8016 0
8015 8442
8015 4338
8015 603
8015 92
8014 4482
8014 4005
8014 625
8013 8726
8013 5317
8013 748
8013 656
8012 8733
8012 7383
8012 5944
8012 2103
8011 7824
8011 6919
8011 1617
8010 8806
8010 4345
8010 3798
8010 1337
8009 5847
8009 4446
8009 90
8008 8062
8008 5772
8008 2639
8008 181
8007 1359
8007 897
8007 69
8006 955
8006 510
8006 393
8005 7838
8005 383
8005 184
8004 6370
8004 5300
8004 4352
8003 4397
8003 303
8003 252
8002 3570
8002 1986
8002 356
8001 3822
8001 3686
8001 400
8000 9924
8000 6970
8000 2305
8000 102
7999 9286
7999 4835
7999 3442
7999 2400
7998 6755
7998 6231
7998 4129
7997 6148
7997 2691
7997 1846
7996 2534
7996 888
7996 798
7995 8770
7995 2038
7995 1465
7995 1160
7994 7811
7994 7126
7994 365
7993 8827
7993 4696
7993 4109
7993 5
7992 3111
7992 247
7992 62
7991 4024
7991 3071
7991 20
7990 3227
7990 2381
7990 1034
7989 7968
7989 1513
7989 585
7988 2931
7988 226
7988 176
7987 7045
7987 6442
7987 3723
7986 2360
7986 2322
7986 6
7985 9529
7985 7952
7985 7224
7985 176
7984 8926
7984 6807
7984 4134
7984 1020
7983 824
7983 509
7983 366
7982 6805
7982 4232
7982 117
7981 4044
7981 2622
7981 228
7980 4208
7980 2075
7980 1197
7979 2534
7979 1607
7979 162
7978 9475
7978 7755
7978 686
7978 7
7977 9669
7977 7298
7977 462
7977 14
7976 171
7976 168
7976 24
7975 3822
7975 350
7975 1
7974 422
7974 72
7974 6
7973 8719
7973 8149
7973 2732
7973 45
7973 10
7972 415
7972 26
7972 9
7971 9571
7971 5975
7971 5103
7971 2855
7970 2276
7970 688
7970 512
7969 8218
7969 7761
7969 250
7969 0
7968 8758
7968 7989
7968 3172
7968 449
7968 342
7967 769
7967 109
7967 87
7966 4462
7966 3325
7966 1677
7965 5988
7965 508
7965 393
7964 6506
7964 649
7964 234
7963 4149
7963 3992
7963 808
7962 9853
7962 5889
7962 11
7962 9
7961 5790
7961 3047
7961 340
7960 6774
7960 982
7960 95
7959 3947
7959 1080
7959 548
7958 2968
7958 2558
7958 2007
7957 3642
7957 3438
7957 824
7956 9390
7956 8930
7956 678
7956 140
7956 82
7955 8199
7955 4484
7955 3208
7955 290
7954 8945
7954 4203
7954 55
7954 32
7953 4535
7953 2804
7953 1753
7952 7985
7952 5798
7952 3119
7952 10
7951 4297
7951 1969
7951 45
7950 9867
7950 3102
7950 2841
7950 145
7949 6527
7949 1221
7949 100
7948 7908
7948 333
7948 227
7947 4963
7947 323
7947 17
7946 8557
7946 7693
7946 3045
7946 1395
7945 5618
7945 1102
7945 6
7944 6392
7944 4701
7944 1148
7943 1744
7943 1545
7943 117
7942 8787
7942 7185
7942 642
7942 6
7941 7804
7941 4352
7941 2950
7940 5905
7940 5805
7940 2780
7939 7471
7939 6285
7939 280
7938 7758
7938 1831
7938 43
7937 8491
7937 7191
7937 5681
7937 52
7936 7928
7936 4450
7936 1079
7935 6896
7935 3424
7935 3209
7934 5889
7934 3211
7934 174
7933 2428
7933 583
7933 244
7932 8432
7932 2023
7932 584
7932 7
7931 2613
7931 2376
7931 1914
7930 8552
7930 1940
7930 688
7930 110
7929 1365
7929 1318
7929 41
7928 7936
7928 3718
7928 2466
7928 363
7927 8259
7927 4506
7927 4380
7927 1264
7926 9462
7926 5894
7926 92
7926 26
7925 9682
7925 2186
7925 1520
7925 474
7924 8528
7924 2865
7924 2841
7924 1339
7923 4740
7923 4247
7923 2475
7922 5223
7922 3245
7922 366
7921 2855
7921 1260
7921 174
7920 9060
7920 6281
7920 5870
7920 2277
7919 2214
7919 767
7919 2
7918 3913
7918 320
7918 64
7917 8737
7917 8018
7917 4102
7917 729
7917 187
7916 4631
7916 733
7916 441
7915 9345
7915 5432
7915 558
7915 3
7914 5428
7914 496
7914 7
7913 4431
7913 1484
7913 2
7912 1781
7912 497
7912 300
7911 7103
7911 583
7911 72
7910 9031
7910 6131
7910 6022
7910 5
7909 8785
7909 8557
7909 5739
7909 2150
7909 61
7908 7948
7908 6706
7908 5170
7908 459
7907 5987
7907 125
7907 20
7906 5060
7906 889
7906 823
7905 9819
7905 2131
7905 170
7905 107
7904 4153
7904 1023
7904 525
7903 1512
7903 616
7903 7
7902 3296
7902 251
7902 89
7901 1168
7901 178
7901 5
7900 2254
7900 1850
7900 1508
7899 6553
7899 6126
7899 1377
7898 7321
7898 4741
7898 1893
7897 5197
7897 1300
7897 318
7896 4054
7896 674
7896 155
7895 5254
7895 2768
7895 102
7894 3117
7894 909
7894 105
7893 5299
7893 721
7893 611
7892 5660
7892 3925
7892 1441
7891 1670
7891 1634
7891 129
7890 6520
7890 4761
7890 3627
7889 9109
7889 1866
7889 897
7889 311
7888 6103
7888 77
7888 52
7887 4040
7887 1138
7887 59
7886 7785
7886 2062
7886 7
7885 5791
7885 3908
7885 1336
7884 9127
7884 7055
7884 190
7884 41
7883 7808
7883 1382
7883 654
7882 7212
7882 6347
7882 201
7881 6126
7881 5544
7881 2855
7880 7655
7880 2965
7880 552
7879 9158
7879 2075
7879 1177
7879 1081
7878 5682
7878 5622
7878 4201
7877 4051
7877 3549
7877 2213
7876 7358
7876 5149
7876 198
7875 1703
7875 1341
7875 493
7874 4710
7874 3383
7874 549
7873 1008
7873 679
7873 3
7872 9455
7872 6455
7872 5815
7872 1758
7871 8327
7871 2664
7871 818
7871 355
7870 162
7870 159
7870 115
7869 3003
7869 2241
7869 918
7868 6660
7868 2622
7868 45
7867 3809
7867 3521
7867 2307
7866 7473
7866 4490
7866 4062
7865 3054
7865 1187
7865 436
7864 6656
7864 6341
7864 1164
7863 9315
7863 4785
7863 64
7863 34
7862 2288
7862 1429
7862 0
7861 7666
7861 7371
7861 4541
7860 3550
7860 2441
7860 1118
7859 6404
7859 1992
7859 1820
7858 8338
7858 4295
7858 651
7858 15
7857 7835
7857 7188
7857 918
7856 5862
7856 5377
7856 4149
7855 6260
7855 2804
7855 985
7854 7786
7854 6158
7854 22
7853 971
7853 369
7853 7
7852 1936
7852 202
7852 132
7851 7634
7851 5007
7851 120
7850 9877
7850 3442
7850 3398
7850 2113
7849 9589
7849 9055
7849 6502
7849 2169
7849 12
7848 5406
7848 5013
7848 2189
7847 8191
7847 8144
7847 3256
7847 2063
7847 1432
7846 8292
7846 7226
7846 98
7846 5
7845 4833
7845 2239
7845 137
7844 2010
7844 1786
7844 210
7843 7597
7843 7144
7843 6428
7842 1704
7842 105
7842 65
7841 8558
7841 6379
7841 6165
7841 2733
7840 9476
7840 8505
7840 708
7840 547
7840 35
7839 7061
7839 33
7839 8
7838 8005
7838 5212
7838 4005
7838 2359
7837 7410
7837 797
7837 86
7836 9565
7836 3811
7836 883
7836 356
7835 7857
7835 1826
7835 1587
7835 252
7834 860
7834 844
7834 648
7833 7044
7833 3841
7833 2920
7832 9880
7832 4245
7832 306
7832 140
7831 2880
7831 1143
7831 289
7830 4499
7830 2961
7830 2234
7829 5362
7829 493
7829 19
7828 4398
7828 1126
7828 23
7827 6803
7827 6510
7827 5997
7826 6147
7826 2379
7826 41
7825 3057
7825 2295
7825 14
7824 8048
7824 8026
7824 8011
7824 7419
7824 6907
7824 4378
7823 9592
7823 8862
7823 6004
7823 1496
7823 798
7822 9962
7822 9348
7822 8892
7822 8808
7822 7071
7822 23
7822 15
7821 7048
7821 3798
7821 1487
7820 5564
7820 558
7820 239
7819 4600
7819 2216
7819 946
7818 8681
7818 5314
7818 5279
7818 280
7817 8880
7817 8396
7817 6077
7817 1046
7817 256
7816 5349
7816 1412
7816 327
7815 9717
7815 9427
7815 2857
7815 655
7815 153
7814 4127
7814 2549
7814 72
7813 3829
7813 3607
7813 727
7812 4261
7812 3711
7812 1114
7811 7994
7811 894
7811 343
7811 46
7810 8471
7810 4143
7810 3332
7810 45
7809 3873
7809 475
7809 12
7808 7883
7808 1120
7808 963
7808 18
7807 8757
7807 687
7807 600
7807 297
7806 1695
7806 466
7806 8
7805 8711
7805 3587
7805 971
7805 273
7804 7941
7804 1371
7804 913
7804 406
7803 7341
7803 3352
7803 69
7802 5697
7802 2496
7802 45
7801 6086
7801 4686
7801 1590
7800 3840
7800 94
7800 5
7799 2565
7799 553
7799 11
7798 5975
7798 5660
7798 174
7797 6136
7797 3435
7797 526
7796 8916
7796 4259
7796 255
7796 147
7795 9234
7795 5847
7795 3277
7795 1136
7794 3841
7794 1255
7794 339
7793 7662
7793 4598
7793 671
7792 9069
7792 5803
7792 4938
7792 584
7791 9420
7791 2892
7791 871
7791 480
7790 8063
7790 5562
7790 39
7790 30
7789 8111
7789 3844
7789 1050
7789 239
7788 5124
7788 5115
7788 775
7787 5939
7787 163
7787 100
7786 8706
7786 7854
7786 6391
7786 2903
7786 1242
7785 8717
7785 8289
7785 7886
7785 2837
7785 700
7785 9
7784 8029
7784 7105
7784 2690
7784 72
7783 3316
7783 2698
7783 77
7782 4646
7782 1061
7782 142
7781 9335
7781 2682
7781 997
7781 120
7780 7530
7780 530
7780 486
7779 8354
7779 4807
7779 162
7779 6
7778 3080
7778 688
7778 5
7777 3390
7777 454
7777 120
7776 8039
7776 2907
7776 2510
7776 2384
7775 9352
7775 5197
7775 3420
7775 5
7774 9629
7774 7253
7774 805
7774 61
7773 6641
7773 964
7773 9
7772 9112
7772 4954
7772 3837
7772 147
7771 516
7771 275
7771 266
7770 9765
7770 8420
7770 6297
7770 2958
7770 255
7769 5903
7769 5520
7769 1492
7768 9181
7768 8624
7768 8291
7768 7044
7768 6656
7768 6370
7767 4256
7767 1025
7767 111
7766 9309
7766 7414
7766 380
7766 46
7765 4487
7765 1638
7765 235
7764 5883
7764 2852
7764 303
7763 5113
7763 2188
7763 339
7762 9872
7762 2309
7762 2293
7762 419
7761 9365
7761 7969
7761 2380
7761 709
7761 534
7760 7756
7760 3963
7760 48
7759 3362
7759 1181
7759 985
7758 8256
7758 7938
7758 1268
7758 423
7758 196
7757 4619
7757 2269
7757 190
7756 7760
7756 6262
7756 2863
7756 2315
7755 7978
7755 1633
7755 1451
7755 293
7754 9382
7754 3316
7754 3217
7754 446
7753 9152
7753 6580
7753 5620
7753 1707
7752 3966
7752 716
7752 288
7751 5656
7751 1634
7751 664
7750 9791
7750 4964
7750 3554
7750 395
7749 3643
7749 3390
7749 23
7748 9994
7748 6150
7748 4710
7748 157
7747 1079
7747 84
7747 6
7746 6373
7746 4211
7746 2854
7745 8621
7745 5979
7745 3634
7745 1189
7744 6617
7744 4726
7744 1424
7743 4698
7743 1491
7743 3
7742 6108
7742 3502
7742 480
7741 4865
7741 3154
7741 1871
7740 1339
7740 273
7740 255
7739 8056
7739 4414
7739 3257
7739 2965
7738 4403
7738 2123
7738 158
7737 5523
7737 4855
7737 851
7736 1888
7736 1748
7736 7
7735 6489
7735 4555
7735 1963
7734 2745
7734 2472
7734 1734
7733 7583
7733 5179
7733 1328
7732 7680
7732 6118
7732 5616
7731 4301
7731 3059
7731 1812
7730 9607
7730 4777
7730 2277
7730 459
7729 6633
7729 629
7729 537
7728 5991
7728 3513
7728 643
7727 6876
7727 1973
7727 0
7726 9037
7726 696
7726 323
7726 114
7725 1700
7725 265
7725 5
7724 5148
7724 995
7724 32
7723 7445
7723 4232
7723 742
7722 9823
7722 7256
7722 2413
7722 1006
7721 8499
7721 4746
7721 1418
7721 10
7720 2454
7720 1072
7720 599
7719 3082
7719 1081
7719 120
7718 7347
7718 2919
7718 6
7717 9810
7717 5144
7717 416
7717 298
7716 9154
7716 5050
7716 2180
7716 1653
7715 4378
7715 1192
7715 518
7714 2259
7714 1413
7714 33
7713 7179
7713 3968
7713 2142
7712 6314
7712 508
7712 186
7711 6667
7711 548
7711 246
7710 5499
7710 4974
7710 453
7709 3600
7709 1937
7709 819
7708 9869
7708 8685
7708 8448
7708 1501
7708 84
7708 7
7707 3891
7707 2712
7707 156
7706 7200
7706 6431
7706 100
7705 6588
7705 3245
7705 746
7704 4630
7704 50
7704 0
7703 4495
7703 851
7703 391
7702 978
7702 707
7702 159
7701 6905
7701 201
7701 19
7700 7228
7700 3395
7700 3184
7699 7669
7699 5730
7699 2997
7698 6512
7698 5917
7698 870
7697 9065
7697 4583
7697 303
7697 77
7696 3817
7696 1395
7696 100
7695 5195
7695 5075
7695 7
7694 9930
7694 9353
7694 8032
7694 6074
7694 5508
7694 27
7693 7946
7693 7223
7693 4494
7693 922
7692 3825
7692 1578
7692 1307
7691 2095
7691 488
7691 187
7690 9449
7690 5614
7690 3657
7690 174
7689 5697
7689 1298
7689 241
7688 5577
7688 1195
7688 578
7687 8933
7687 7231
7687 5865
7687 3705
7686 3984
7686 2927
7686 147
7685 8019
7685 3385
7685 2358
7685 1725
7684 456
7684 323
7684 37
7683 9056
7683 6596
7683 2818
7683 55
7682 5570
7682 3627
7682 260
7681 6769
7681 5654
7681 833
7680 7732
7680 4584
7680 1427
7680 720
7679 5898
7679 1367
7679 42
7678 6396
7678 3007
7678 1848
7677 6030
7677 2264
7677 1663
7676 4391
7676 3204
7676 704
7675 972
7675 668
7675 7
7674 3339
7674 1610
7674 1043
7673 2570
7673 1679
7673 389
7672 9006
7672 8406
7672 8281
7672 6921
7672 6789
7672 5347
7671 3963
7671 2652
7671 256
7670 2205
7670 1706
7670 184
7669 8953
7669 7699
7669 6104
7669 2100
7669 1777
7668 5432
7668 1925
7668 1148
7667 9226
7667 3976
7667 3510
7667 20
7666 9375
7666 7861
7666 987
7666 137
7666 79
7665 8460
7665 1965
7665 41
7665 7
7664 5790
7664 2878
7664 434
7663 3306
7663 2980
7663 44
7662 7793
7662 7420
7662 5867
7662 1759
7661 7435
7661 1004
7661 921
7660 1695
7660 366
7660 7
7659 6287
7659 2152
7659 222
7658 9140
7658 2216
7658 2169
7658 364
7657 3293
7657 1146
7657 132
7656 1491
7656 1209
7656 157
7655 7880
7655 6798
7655 5420
7655 6
7654 8777
7654 4705
7654 2811
7654 6
7653 8620
7653 869
7653 534
7653 208
7652 9843
7652 9789
7652 8907
7652 2622
7652 204
7652 153
7651 9116
7651 5867
7651 1546
7651 790
7650 2534
7650 1012
7650 33
7649 9688
7649 995
7649 412
7649 275
7648 9621
7648 3663
7648 3652
7648 2697
7647 506
7647 349
7647 37
7646 2939
7646 1359
7646 122
7645 1360
7645 901
7645 241
7644 3533
7644 1633
7644 503
7643 8156
7643 6455
7643 5775
7643 194
7642 4117
7642 119
7642 37
7641 8662
7641 2622
7641 2185
7641 31
7640 6950
7640 4213
7640 3686
7639 9207
7639 5708
7639 975
7639 77
7638 4563
7638 1495
7638 72
7637 9232
7637 4570
7637 3597
7637 264
7636 5699
7636 4724
7636 3047
7635 6394
7635 1399
7635 955
7634 9596
7634 7851
7634 4800
7634 3176
7634 675
7633 2162
7633 1667
7633 806
7632 4736
7632 1879
7632 1018
7631 3356
7631 142
7631 65
7630 9264
7630 6482
7630 1805
7630 1512
7629 5585
7629 4067
7629 3884
7628 9793
7628 1925
7628 1686
7628 325
7627 8476
7627 2352
7627 479
7627 114
7626 8081
7626 3390
7626 911
7626 284
7625 291
7625 207
7625 113
7624 9656
7624 4696
7624 2913
7624 430
7623 9760
7623 2198
7623 603
7623 297
7622 4721
7622 4661
7622 16
7621 6559
7621 3905
7621 3414
7620 2171
7620 2168
7620 55
7619 7141
7619 4665
7619 1096
7618 1182
7618 862
7618 247
7617 5237
7617 1674
7617 193
7616 9674
7616 7250
7616 4950
7616 5
7615 9662
7615 4566
7615 2335
7615 44
7614 6711
7614 5825
7614 4
7613 5483
7613 3586
7613 2288
7612 6421
7612 5689
7612 153
7611 8565
7611 4156
7611 1170
7611 7
7610 3608
7610 3304
7610 1670
7609 9535
7609 3694
7609 461
7609 0
7608 2765
7608 2675
7608 738
7607 9381
7607 8936
7607 5011
7607 4328
7607 3470
7606 8700
7606 4126
7606 1535
7606 935
7605 8650
7605 4816
7605 3792
7605 345
7604 9023
7604 8692
7604 3486
7604 217
7604 115
7603 9269
7603 9246
7603 3940
7603 3926
7603 1028
7602 2827
7602 447
7602 160
7601 5692
7601 779
7601 174
7600 6390
7600 2270
7600 1427
7599 9406
7599 6621
7599 485
7599 23
7598 8848
7598 8022
7598 5763
7598 3311
7598 1407
7597 9868
7597 9457
7597 7843
7597 2949
7597 2038
7597 520
7596 5416
7596 4490
7596 674
7595 8347
7595 6023
7595 1021
7595 142
7594 7172
7594 2763
7594 2559
7593 3238
7593 2403
7593 806
7592 5847
7592 235
7592 158
7591 1569
7591 935
7591 887
7590 627
7590 19
7590 0
7589 7231
7589 4703
7589 649
7588 8074
7588 4464
7588 3127
7588 166
7587 7363
7587 3834
7587 612
7586 9703
7586 5655
7586 4865
7586 2288
7585 3306
7585 1486
7585 278
7584 5971
7584 5545
7584 4717
7583 9195
7583 7733
7583 5279
7583 5102
7583 253
7582 8861
7582 6466
7582 3814
7582 2462
7581 6370
7581 5420
7581 4177
7580 9033
7580 3561
7580 1891
7580 386
7579 677
7579 50
7579 28
7578 4410
7578 2422
7578 1782
7577 3945
7577 1591
7577 182
7576 9776
7576 6067
7576 2457
7576 296
7575 4875
7575 720
7575 447
7574 5979
7574 456
7574 102
7573 2594
7573 1043
7573 891
7572 9777
7572 8357
7572 6841
7572 269
7572 249
7571 157
7571 91
7571 16
7570 3310
7570 1327
7570 193
7569 9617
7569 6207
7569 2777
7569 1432
7568 2612
7568 2381
7568 1594
7567 3916
7567 3552
7567 1573
7566 3922
7566 1352
7566 899
7565 9102
7565 8642
7565 5052
7565 4452
7565 148
7564 2745
7564 50
7564 46
7563 2839
7563 729
7563 29
7562 7427
7562 6584
7562 216
7561 8882
7561 2625
7561 474
7561 52
7560 8411
7560 7016
7560 1460
7560 1273
7559 5533
7559 4286
7559 1093
7558 496
7558 79
7558 6
7557 3644
7557 1414
7557 1
7556 9470
7556 8402
7556 6319
7556 2527
7556 869
7555 5552
7555 1185
7555 882
7554 1140
7554 1127
7554 599
7553 3222
7553 2287
7553 225
7552 9261
7552 8429
7552 2314
7552 353
7552 0
7551 520
7551 234
7551 100
7550 2617
7550 2313
7550 212
7549 9413
7549 4898
7549 2807
7549 2086
7548 1233
7548 326
7548 115
7547 8278
7547 6294
7547 4841
7547 4548
7546 2930
7546 2652
7546 2
7545 1910
7545 1847
7545 1671
7544 9979
7544 7417
7544 138
7544 8
7543 2978
7543 2506
7543 499
7542 6388
7542 1760
7542 614
7541 930
7541 778
7541 223
7540 5555
7540 1438
7540 293
7539 8221
7539 4234
7539 746
7539 693
7538 2338
7538 1464
7538 233
7537 2095
7537 589
7537 57
7536 1351
7536 35
7536 16
7535 7409
7535 6252
7535 4198
7534 6074
7534 4667
7534 124
7533 1932
7533 644
7533 14
7532 8699
7532 6611
7532 50
7532 38
7531 2484
7531 626
7531 267
7530 7780
7530 6573
7530 1193
7530 471
7529 1395
7529 1182
7529 485
7528 4045
7528 3364
7528 1618
7527 9469
7527 9005
7527 5372
7527 3261
7527 1235
7526 2538
7526 2213
7526 745
7525 8091
7525 3619
7525 48
7525 3
7524 502
7524 225
7524 77
7523 4209
7523 1576
7523 198
7522 3301
7522 294
7522 63
7521 8570
7521 2542
7521 436
7521 153
7520 9635
7520 5975
7520 1869
7520 176
7519 8292
7519 713
7519 198
7519 26
7518 3151
7518 1028
7518 89
7517 4967
7517 3013
7517 2498
7516 2639
7516 1732
7516 419
7515 5099
7515 834
7515 100
7514 7295
7514 3655
7514 614
7513 7463
7513 352
7513 11
7512 9576
7512 7478
7512 2150
7512 265
7511 2409
7511 825
7511 445
7510 8143
7510 5777
7510 1841
7510 343
7509 8364
7509 5903
7509 4593
7509 318
7508 6331
7508 275
7508 98
7507 6809
7507 4276
7507 1138
7506 6778
7506 5038
7506 16
7505 3643
7505 894
7505 304
7504 8762
7504 6964
7504 1454
7504 23
7503 5692
7503 4971
7503 55
7502 5315
7502 2936
7502 2099
7501 6542
7501 2768
7501 7
7500 9812
7500 6727
7500 5225
7500 29
7499 3432
7499 1304
7499 470
7498 1816
7498 1472
7498 292
7497 7273
7497 747
7497 696
7496 8367
7496 5293
7496 3911
7496 1014
7495 8677
7495 698
7495 180
7495 86
7494 3017
7494 1556
7494 513
7493 9269
7493 9168
7493 6430
7493 416
7493 287
7492 4454
7492 2676
7492 1286
7491 2003
7491 1925
7491 1463
7490 6665
7490 2988
7490 1720
7489 1501
7489 474
7489 380
7488 4822
7488 4153
7488 1486
7487 4322
7487 2687
7487 2244
7486 3159
7486 2407
7486 633
7485 7309
7485 3352
7485 1099
7484 5379
7484 2133
7484 1202
7483 7061
7483 4738
7483 12
7482 4803
7482 2708
7482 550
7481 4489
7481 1412
7481 45
7480 4718
7480 3078
7480 1049
7479 7322
7479 3054
7479 14
7478 8872
7478 7512
7478 1825
7478 255
7478 34
7477 4755
7477 4293
7477 192
7476 9043
7476 8216
7476 1064
7476 440
7476 17
7475 9897
7475 8174
7475 3470
7475 1539
7475 616
7474 2345
7474 1599
7474 36
7473 7866
7473 6729
7473 3576
7473 200
7472 6331
7472 2899
7472 2765
7471 8867
7471 7939
7471 4040
7471 1191
7471 1162
7470 3123
7470 2299
7470 140
7469 3649
7469 138
7469 88
7468 3337
7468 2485
7468 1718
7467 4078
7467 1085
7467 216
7466 9761
7466 5252
7466 584
7466 148
7465 8939
7465 2785
7465 1640
7465 3
7464 3750
7464 809
7464 61
7463 8190
7463 7513
7463 4816
7463 946
7463 941
7462 5063
7462 4273
7462 3885
7461 9047
7461 8543
7461 8202
7461 8158
7461 4738
7461 1128
7461 675
7460 7032
7460 1860
7460 46
7459 2510
7459 2003
7459 492
7458 241
7458 135
7458 130
7457 2529
7457 2458
7457 10
7456 3935
7456 691
7456 19
7455 6599
7455 3225
7455 1264
7454 9901
7454 9349
7454 3259
7454 740
7454 43
7453 6573
7453 3355
7453 3071
7452 1516
7452 704
7452 427
7451 5385
7451 4680
7451 151
7450 3490
7450 2437
7450 391
7449 4261
7449 3565
7449 889
7448 4000
7448 1472
7448 1051
7447 6852
7447 922
7447 325
7446 9959
7446 4824
7446 636
7446 5
7445 7723
7445 1681
7445 417
7445 347
7444 2577
7444 2192
7444 680
7443 2634
7443 245
7443 38
7442 9781
7442 9075
7442 1213
7442 199
7442 120
7441 9751
7441 8719
7441 6944
7441 1594
7441 859
7440 8116
7440 4769
7440 4601
7440 1287
7439 5030
7439 4619
7439 3414
7438 5295
7438 2853
7438 1315
7437 3120
7437 582
7437 7
7436 3909
7436 2169
7436 2013
7435 8110
7435 7661
7435 2273
7435 904
7435 5
7434 1098
7434 820
7434 184
7433 1112
7433 144
7433 0
7432 9472
7432 680
7432 72
7432 69
7431 7082
7431 3527
7431 2107
7430 4402
7430 601
7430 497
7429 5941
7429 1675
7429 306
7428 2745
7428 1397
7428 1296
7427 9829
7427 8083
7427 7562
7427 2583
7427 7
7427 2
7426 5098
7426 2675
7426 304
7425 1307
7425 750
7425 36
7424 9526
7424 5928
7424 1645
7424 188
7423 4750
7423 281
7423 208
7422 9382
7422 9155
7422 8809
7422 6179
7422 2968
7422 1320
7421 9508
7421 180
7421 176
7421 72
7420 7662
7420 2470
7420 350
7420 135
7419 7824
7419 1305
7419 170
7419 100
7418 7284
7418 1140
7418 33
7417 7544
7417 4560
7417 2603
7417 179
7416 1689
7416 1123
7416 1050
7415 2566
7415 655
7415 97
7414 7766
7414 6585
7414 2302
7414 1449
7413 6397
7413 4459
7413 3801
7412 5218
7412 4346
7412 645
7411 5722
7411 1796
7411 293
7410 8764
7410 7837
7410 7348
7410 5833
7410 1
7409 7535
7409 7067
7409 2772
7409 98
7408 3214
7408 316
7408 138
7407 3286
7407 1101
7407 370
7406 2165
7406 626
7406 543
7405 6917
7405 6513
7405 2656
7404 5311
7404 3911
7404 1520
7403 5998
7403 5640
7403 2376
7402 3774
7402 2561
7402 92
7401 7155
7401 654
7401 14
7400 5724
7400 4350
7400 108
7399 9439
7399 8690
7399 4624
7399 2805
7399 2199
7398 4336
7398 3154
7398 2418
7397 3160
7397 2185
7397 1853
7396 9777
7396 6010
7396 5877
7396 1496
7395 3201
7395 1627
7395 117
7394 9437
7394 6890
7394 1960
7394 197
7393 2308
7393 1219
7393 383
7392 5677
7392 678
7392 27
7391 7321
7391 1648
7391 1515
7390 2573
7390 1606
7390 227
7389 8439
7389 6943
7389 4198
7389 1560
7388 9760
7388 3330
7388 2889
7388 2642
7387 795
7387 78
7387 4
7386 4758
7386 1650
7386 603
7385 9159
7385 8973
7385 3996
7385 1658
7385 5
7384 8023
7384 825
7384 279
7384 248
7383 8012
7383 6760
7383 6039
7383 1303
7382 9649
7382 8726
7382 1851
7382 785
7382 502
7381 5911
7381 393
7381 225
7380 6509
7380 3164
7380 444
7379 3307
7379 2219
7379 27
7378 5338
7378 843
7378 7
7377 7065
7377 5761
7377 38
7376 6406
7376 6120
7376 1518
7375 3432
7375 2906
7375 2376
7374 6012
7374 3807
7374 1149
7373 6997
7373 6257
7373 3694
7372 5560
7372 1532
7372 667
7371 7861
7371 6548
7371 5182
7371 4904
7370 9031
7370 3951
7370 1212
7370 351
7369 3797
7369 305
7369 280
7368 2359
7368 487
7368 102
7367 9408
7367 3415
7367 3113
7367 1981
7366 3396
7366 3049
7366 2338
7365 8395
7365 5880
7365 482
7365 20
7364 7069
7364 5633
7364 845
7363 8595
7363 7587
7363 3464
7363 260
7363 63
7362 2072
7362 1763
7362 738
7361 2699
7361 2692
7361 850
7360 5660
7360 1282
7360 1025
7359 9059
7359 5829
7359 3885
7359 3016
7358 7876
7358 2575
7358 1298
7358 471
7357 8742
7357 2601
7357 1186
7357 837
7356 5343
7356 4898
7356 2859
7355 9527
7355 7274
7355 255
7355 55
7354 5325
7354 604
7354 141
7353 3411
7353 3211
7353 7
7352 6861
7352 655
7352 176
7351 7003
7351 1736
7351 444
7350 8453
7350 3954
7350 2194
7350 1977
7349 7298
7349 3734
7349 90
7348 9907
7348 9118
7348 7410
7348 7273
7348 325
7348 3
7347 7718
7347 3605
7347 3150
7347 29
7346 3497
7346 2783
7346 526
7345 3791
7345 2592
7345 1194
7344 5207
7344 4102
7344 3184
7343 6155
7343 971
7343 897
7342 4741
7342 265
7342 2
7341 8541
7341 7803
7341 4013
7341 2698
7341 35
7340 4328
7340 1615
7340 209
7339 4630
7339 92
7339 12
7338 3637
7338 1445
7338 29
7337 8348
7337 6039
7337 1682
7337 1228
7336 5419
7336 3568
7336 74
7335 3591
7335 1285
7335 457
7334 3659
7334 1575
7334 141
7333 3634
7333 511
7333 55
7332 2351
7332 1301
7332 438
7331 8938
7331 1808
7331 1564
7331 1418
7330 8542
7330 8389
7330 3101
7330 1427
7330 126
7329 825
7329 806
7329 222
7328 8551
7328 5425
7328 1180
7328 535
7327 3431
7327 984
7327 23
7326 4265
7326 3414
7326 1515
7325 3807
7325 3375
7325 1397
7324 4523
7324 1481
7324 241
7323 4551
7323 1942
7323 1206
7322 9392
7322 8956
7322 7479
7322 3917
7322 3749
7322 2132
7321 7898
7321 7391
7321 231
7321 166
7321 5
7320 5922
7320 3969
7320 1262
7319 9360
7319 5671
7319 4626
7319 5
7318 1446
7318 598
7318 390
7317 8804
7317 7196
7317 3003
7317 472
7316 5256
7316 2718
7316 1918
7315 2170
7315 421
7315 19
7314 5648
7314 4336
7314 2423
7313 2703
7313 1871
7313 34
7312 9603
7312 7122
7312 5485
7312 138
7311 6826
7311 1277
7311 245
7310 8188
7310 6315
7310 2221
7310 1571
7309 8994
7309 7485
7309 3343
7309 3227
7309 2499
7308 5338
7308 1114
7308 18
7307 2166
7307 1748
7307 709
7306 5979
7306 2648
7306 143
7305 5574
7305 2928
7305 592
7304 5742
7304 3957
7304 313
7303 6441
7303 4268
7303 12
7302 6916
7302 4318
7302 2042
7301 6071
7301 4088
7301 804
7300 4889
7300 2398
7300 454
7299 5482
7299 5125
7299 4691
7298 8302
7298 7977
7298 7349
7298 4610
7298 2612
7298 72
7297 4594
7297 2767
7297 299
7296 5193
7296 2398
7296 1307
7295 7514
7295 1752
7295 1481
7295 727
7294 6239
7294 1294
7294 500
7293 9717
7293 8559
7293 2471
7293 2293
7293 19
7292 1963
7292 1947
7292 1639
7291 6092
7291 797
7291 165
7290 6692
7290 3743
7290 2520
7289 7275
7289 861
7289 71
7288 5265
7288 1970
7288 6
7287 9919
7287 8818
7287 8350
7287 5543
7287 5226
7287 2855
7286 4672
7286 2038
7286 1411
7285 3300
7285 1675
7285 1629
7284 7418
7284 1090
7284 432
7284 64
7283 4837
7283 672
7283 511
7282 1061
7282 723
7282 140
7281 5739
7281 4797
7281 1503
7280 9126
7280 4458
7280 1781
7280 502
7279 3363
7279 1988
7279 35
7278 9029
7278 6184
7278 5607
7278 4259
7277 4948
7277 2381
7277 495
7276 4830
7276 1897
7276 78
7275 7289
7275 1266
7275 953
7275 461
7274 8463
7274 7355
7274 6849
7274 4755
7274 7
7273 7497
7273 7348
7273 6228
7273 5121
7273 3173
7272 9062
7272 8952
7272 8369
7272 5563
7272 4282
7272 470
7271 5124
7271 4848
7271 2836
7270 3452
7270 837
7270 638
7269 3489
7269 2303
7269 455
7268 6550
7268 4468
7268 3724
7267 8130
7267 3416
7267 223
7267 200
7266 8536
7266 5865
7266 1255
7266 608
7265 8903
7265 3724
7265 117
7265 0
7264 4144
7264 3331
7264 2400
7263 2968
7263 592
7263 387
7262 6254
7262 4379
7262 3541
7261 1994
7261 825
7261 33
7260 8918
7260 8304
7260 5314
7260 4695
7260 3008
7259 3739
7259 1199
7259 222
7258 9525
7258 8374
7258 6954
7258 2332
7258 753
7257 8077
7257 6416
7257 4757
7257 1593
7256 9513
7256 7722
7256 1793
7256 988
7256 638
7255 7171
7255 3307
7255 3005
7254 4492
7254 2309
7254 1273
7253 9096
7253 8704
7253 7774
7253 7147
7253 3805
7253 72
7252 8093
7252 4904
7252 3648
7252 285
7251 9993
7251 3206
7251 2922
7251 502
7250 7616
7250 4112
7250 1699
7250 583
7249 6152
7249 1194
7249 160
7248 5628
7248 171
7248 151
7247 5224
7247 4608
7247 119
7246 3543
7246 2637
7246 128
7245 4884
7245 3518
7245 2466
7244 9093
7244 6655
7244 6287
7244 2887
7243 6286
7243 4443
7243 381
7242 9996
7242 6967
7242 2306
7242 1057
7241 7213
7241 2990
7241 2942
7240 3611
7240 1591
7240 43
7239 1412
7239 632
7239 166
7238 8324
7238 4281
7238 3258
7238 1046
7237 7071
7237 634
7237 378
7236 5813
7236 3840
7236 474
7235 2487
7235 2189
7235 660
7234 9526
7234 3968
7234 863
7234 61
7233 4467
7233 1284
7233 39
7232 4672
7232 1147
7232 200
7231 7687
7231 7589
7231 6341
7231 3995
7231 1018
7230 795
7230 168
7230 2
7229 9048
7229 4287
7229 2914
7229 825
7228 8310
7228 7700
7228 5581
7228 871
7228 767
7227 5664
7227 1834
7227 7
7226 7846
7226 5156
7226 4109
7226 228
7225 3339
7225 1601
7225 243
7224 9727
7224 9208
7224 7985
7224 899
7224 708
7224 707
7223 7693
7223 2682
7223 568
7223 20
7222 6925
7222 6424
7222 6115
7221 5951
7221 3316
7221 2836
7220 8607
7220 8354
7220 1609
7220 1328
7220 267
7219 2539
7219 2178
7219 1807
7218 5818
7218 4041
7218 3963
7217 4312
7217 2357
7217 2204
7216 2031
7216 1300
7216 539
7215 467
7215 216
7215 41
7214 9768
7214 6978
7214 4252
7214 2314
7213 8924
7213 8275
7213 7241
7213 6755
7213 6712
7213 1011
7212 7882
7212 4535
7212 2082
7212 67
7211 5492
7211 4583
7211 41
7210 5896
7210 512
7210 23
7209 8824
7209 987
7209 860
7209 260
7208 3877
7208 1463
7208 667
7207 9326
7207 1778
7207 708
7207 2
7206 6860
7206 2390
7206 1682
7205 8299
7205 4410
7205 2001
7205 679
7204 8873
7204 4986
7204 847
7204 59
7203 4112
7203 1085
7203 771
7202 5213
7202 3255
7202 1341
7201 4679
7201 19
7201 7
7200 7706
7200 6059
7200 2676
7200 386
7199 5104
7199 2576
7199 189
7198 6449
7198 3788
7198 60
7197 585
7197 292
7197 166
7196 7317
7196 6918
7196 3919
7196 67
7195 5410
7195 2679
7195 44
7194 6377
7194 4352
7194 3153
7193 4975
7193 1530
7193 80
7192 6479
7192 2553
7192 2515
7191 7937
7191 5729
7191 128
7191 45
7190 8951
7190 2885
7190 642
7190 178
7189 6546
7189 2620
7189 604
7188 9575
7188 7857
7188 4995
7188 4972
7188 154
7187 6337
7187 255
7187 182
7186 4797
7186 4344
7186 133
7185 7942
7185 6667
7185 1229
7185 416
7184 1443
7184 863
7184 621
7183 5795
7183 228
7183 2
7182 678
7182 50
7182 29
7181 6820
7181 6107
7181 52
7180 3130
7180 207
7180 155
7179 8711
7179 7713
7179 571
7179 528
7179 1
7178 8597
7178 706
7178 130
7178 36
7177 1622
7177 315
7177 15
7176 2104
7176 398
7176 14
7175 6395
7175 4864
7175 3911
7174 8339
7174 8196
7174 5705
7174 2325
7174 1250
7173 5888
7173 1652
7173 1594
7172 7594
7172 4594
7172 126
7172 7
7171 7255
7171 1970
7171 506
7171 145
7170 1771
7170 716
7170 304
7169 5179
7169 195
7169 7
7168 420
7168 82
7168 5
7167 4574
7167 2632
7167 77
7166 1753
7166 669
7166 98
7165 9986
7165 2882
7165 1049
7165 427
7164 8852
7164 5312
7164 917
7164 799
7163 8934
7163 6287
7163 6107
7163 2335
7162 2335
7162 1744
7162 1031
7161 9683
7161 9457
7161 2505
7161 1471
7161 778
7160 6864
7160 1421
7160 6
7159 2618
7159 1141
7159 3
7158 9280
7158 8684
7158 8041
7158 1589
7158 294
7158 131
7157 2707
7157 906
7157 192
7156 8553
7156 2529
7156 438
7156 113
7155 7401
7155 6518
7155 246
7155 25
7154 9283
7154 2216
7154 327
7154 1
7153 755
7153 377
7153 178
7152 2625
7152 1318
7152 1182
7151 1217
7151 261
7151 35
7150 9280
7150 6029
7150 3519
7150 2227
7149 6596
7149 2212
7149 217
7148 2360
7148 1144
7148 33
7147 7253
7147 4634
7147 4333
7147 239
7146 4287
7146 1811
7146 311
7145 9051
7145 1531
7145 656
7145 33
7144 9768
7144 9671
7144 7843
7144 5277
7144 3442
7144 17
7143 1875
7143 648
7143 113
7142 3927
7142 3115
7142 1990
7141 7619
7141 3337
7141 3014
7141 1321
7140 9125
7140 4697
7140 2914
7140 2579
7139 5660
7139 3740
7139 1871
7138 5318
7138 4186
7138 2749
7137 6471
7137 4512
7137 2135
7136 9556
7136 8549
7136 3750
7136 2931
7136 33
7135 2790
7135 1335
7135 1043
7134 8241
7134 1755
7134 1398
7134 73
7133 6620
7133 2613
7133 1048
7132 8764
7132 8270
7132 2779
7132 2135
7132 612
7131 1354
7131 143
7131 5
7130 9108
7130 3729
7130 1904
7130 4
7129 3987
7129 1065
7129 929
7128 9163
7128 6410
7128 1341
7128 6
7127 2894
7127 1394
7127 386
7126 9346
7126 7994
7126 2158
7126 542
7126 526
7125 486
7125 481
7125 380
7124 6941
7124 3145
7124 271
7123 982
7123 827
7123 174
7122 7312
7122 6555
7122 2703
7122 795
7121 5543
7121 4205
7121 506
7120 814
7120 351
7120 332
7119 3972
7119 2887
7119 1032
7118 9433
7118 5870
7118 1313
7118 1068
7117 4601
7117 3833
7117 1751
7116 1032
7116 127
7116 7
7115 5709
7115 3519
7115 245
7114 5681
7114 2749
7114 23
7113 5998
7113 388
7113 136
7112 8580
7112 4338
7112 3561
7112 1148
7111 9050
7111 5867
7111 1974
7111 45
7110 9773
7110 9551
7110 5619
7110 2043
7110 28
7109 1122
7109 666
7109 193
7108 5413
7108 4661
7108 2748
7107 9524
7107 6756
7107 1043
7107 7
7106 148
7106 59
7106 12
7105 7784
7105 2804
7105 2233
7105 1461
7104 4972
7104 328
7104 42
7103 7911
7103 3247
7103 806
7103 634
7102 6315
7102 3809
7102 26
7101 9273
7101 853
7101 827
7101 296
7100 6232
7100 5765
7100 3776
7099 3084
7099 2451
7099 1821
7098 6856
7098 634
7098 537
7097 3837
7097 3284
7097 0
7096 1917
7096 362
7096 41
7095 9059
7095 5885
7095 3599
7095 402
7094 2730
7094 1590
7094 787
7093 3329
7093 321
7093 11
7092 4507
7092 1133
7092 7
7091 9418
7091 5253
7091 202
7091 78
7090 5043
7090 1574
7090 710
7089 4447
7089 1084
7089 482
7088 6030
7088 1975
7088 893
7087 3772
7087 1508
7087 408
7086 5188
7086 879
7086 173
7085 1318
7085 83
7085 69
7084 9036
7084 4021
7084 2127
7084 2038
7083 3600
7083 345
7083 17
7082 9636
7082 7431
7082 6095
7082 440
7082 393
7081 3335
7081 2364
7081 1655
7080 5715
7080 458
7080 11
7079 6262
7079 5099
7079 514
7078 3096
7078 1791
7078 143
7077 4748
7077 2374
7077 301
7076 455
7076 204
7076 5
7075 974
7075 392
7075 388
7074 3421
7074 27
7074 14
7073 4282
7073 3835
7073 33
7072 9711
7072 9615
7072 2510
7072 246
7072 0
7071 9307
7071 7822
7071 7237
7071 2682
7071 608
7071 249
7070 8043
7070 6242
7070 5965
7070 4496
7069 9664
7069 7364
7069 6862
7069 5786
7069 4
7068 4431
7068 4115
7068 2160
7067 9173
7067 7409
7067 6971
7067 3746
7067 1198
7066 6690
7066 3706
7066 0
7065 7377
7065 4652
7065 3243
7065 531
7064 8414
7064 3647
7064 818
7064 577
7063 6169
7063 1520
7063 57
7062 6223
7062 4651
7062 2978
7061 9118
7061 7839
7061 7483
7061 5378
7061 2604
7061 1178
7060 3109
7060 1682
7060 92
7059 6879
7059 3467
7059 2992
7058 9971
7058 7002
7058 3153
7058 2855
7057 2824
7057 1866
7057 369
7056 9488
7056 6469
7056 3668
7056 927
7055 7884
7055 584
7055 366
7055 244
7054 4956
7054 3027
7054 998
7053 1208
7053 9
7053 7
7052 8386
7052 5796
7052 1749
7052 1307
7051 6957
7051 3449
7051 2967
7050 9770
7050 9051
7050 1755
7050 599
7050 26
7049 9943
7049 2791
7049 2293
7049 149
7048 9597
7048 7821
7048 5871
7048 1307
7048 389
7047 1798
7047 1491
7047 1142
7046 5589
7046 1472
7046 638
7045 7987
7045 2228
7045 2216
7045 395
7044 7833
7044 7768
7044 2763
7044 84
7044 1
7043 5384
7043 4554
7043 3934
7042 9453
7042 6675
7042 1578
7042 1181
7041 389
7041 366
7041 23
7040 6526
7040 4536
7040 2967
7039 5846
7039 3319
7039 134
7038 9402
7038 6244
7038 4863
7038 27
7037 9521
7037 9399
7037 572
7037 49
7037 7
7036 3252
7036 326
7036 92
7035 9502
7035 2534
7035 931
7035 873
7034 4674
7034 4002
7034 170
7033 8981
7033 8119
7033 1638
7033 188
7033 28
7032 7460
7032 3233
7032 2194
7032 6
7031 6558
7031 5274
7031 4994
7030 1730
7030 63
7030 33
7029 8989
7029 708
7029 518
7029 0
7028 8354
7028 1771
7028 1468
7028 1026
7027 8338
7027 6204
7027 2936
7027 1440
7026 8770
7026 4009
7026 1113
7026 14
7025 1855
7025 830
7025 39
7024 8405
7024 5305
7024 1405
7024 904
7023 5942
7023 3015
7023 2653
7022 5735
7022 3854
7022 778
7021 9085
7021 5377
7021 2163
7021 1286
7020 4527
7020 1868
7020 387
7019 2466
7019 100
7019 4
7018 6160
7018 4247
7018 1390
7017 6766
7017 1418
7017 779
7016 9622
7016 9129
7016 7560
7016 5838
7016 5020
7016 1025
7015 5487
7015 158
7015 10
7014 6677
7014 5740
7014 670
7013 1306
7013 400
7013 59
7012 5321
7012 2034
7012 702
7011 8020
7011 4065
7011 5
7011 0
7010 2519
7010 1563
7010 564
7009 9888
7009 8923
7009 5094
7009 1800
7009 538
7008 5311
7008 3805
7008 461
7007 5353
7007 5331
7007 55
7006 9693
7006 5909
7006 886
7006 293
7005 1219
7005 827
7005 356
7004 6327
7004 5623
7004 5052
7003 9781
7003 7351
7003 472
7003 284
7003 54
7002 9383
7002 9293
7002 7058
7002 3454
7002 99
7002 22
7001 8988
7001 3976
7001 2676
7001 613
7000 9828
7000 4967
7000 3425
7000 1356
6999 5710
6999 2115
6999 227
6998 9069
6998 4464
6998 3100
6998 93
6997 9791
6997 7373
6997 1059
6997 117
6997 55
6996 6327
6996 22
6996 6
6995 2005
6995 902
6995 219
6994 1199
6994 799
6994 301
6993 9503
6993 9460
6993 9056
6993 1400
6993 1226
6993 583
6992 5029
6992 4414
6992 460
6991 366
6991 270
6991 9
6990 6693
6990 3218
6990 98
6989 5406
6989 4688
6989 204
6988 5114
6988 4569
6988 95
6987 6017
6987 5957
6987 2072
6986 4090
6986 3500
6986 1551
6985 2351
6985 1294
6985 30
6984 6690
6984 5941
6984 434
6983 3129
6983 2634
6983 713
6982 9666
6982 6316
6982 84
6982 23
6981 6783
6981 4692
6981 1198
6980 3719
6980 2620
6980 106
6979 416
6979 391
6979 124
6978 7214
6978 6242
6978 1111
6978 794
6977 52
6977 27
6977 7
6976 3819
6976 2142
6976 424
6975 3642
6975 2492
6975 1806
6974 1713
6974 1084
6974 708
6973 9142
6973 5373
6973 5097
6973 2646
6972 4194
6972 2054
6972 473
6971 7067
6971 4582
6971 3164
6971 392
6970 8000
6970 6769
6970 1651
6970 860
6969 8887
6969 4276
6969 2418
6969 118
6968 2990
6968 1909
6968 1395
6967 8812
6967 7242
6967 2240
6967 1626
6967 186
6966 9696
6966 8825
6966 8795
6966 2501
6966 1556
6966 448
6965 5740
6965 5238
6965 2932
6964 7504
6964 4327
6964 67
6964 20
6963 4067
6963 1977
6963 1860
6962 3409
6962 1059
6962 322
6961 4863
6961 608
6961 527
6960 2214
6960 1316
6960 866
6959 8768
6959 3543
6959 1928
6959 645
6958 8271
6958 1982
6958 855
6958 200
6957 7051
6957 524
6957 241
6957 77
6956 607
6956 553
6956 165
6955 4106
6955 518
6955 0
6954 9988
6954 7258
6954 854
6954 340
6954 13
6953 4825
6953 4701
6953 918
6952 2170
6952 668
6952 309
6951 6051
6951 4108
6951 354
6950 8933
6950 7640
6950 542
6950 452
6950 162
6949 8425
6949 8016
6949 3210
6949 2359
6949 8
6948 9375
6948 8470
6948 6178
6948 4122
6948 1557
6947 1018
6947 462
6947 193
6946 6047
6946 4974
6946 4863
6945 9104
6945 6017
6945 2030
6945 1196
6944 9176
6944 9061
6944 7441
6944 2913
6944 382
6944 45
6943 7389
6943 2622
6943 1649
6943 1433
6942 9628
6942 2980
6942 2139
6942 193
6941 7124
6941 6198
6941 4195
6941 4093
6940 5797
6940 3184
6940 1454
6939 5518
6939 720
6939 190
6938 5624
6938 2388
6938 59
6937 2031
6937 511
6937 20
6936 8820
6936 2876
6936 2577
6936 1987
6935 9916
6935 2483
6935 10
6935 7
6934 6909
6934 1002
6934 110
6933 3783
6933 1268
6933 4
6932 6095
6932 1028
6932 775
6931 5982
6931 2870
6931 5
6930 6331
6930 349
6930 44
6929 3493
6929 787
6929 114
6928 436
6928 356
6928 258
6927 1275
6927 328
6927 100
6926 3153
6926 791
6926 7
6925 7222
6925 4226
6925 1341
6925 142
6924 6047
6924 1383
6924 156
6923 5795
6923 1824
6923 351
6922 8451
6922 5168
6922 187
6922 141
6921 7672
6921 2458
6921 1982
6921 467
6920 8353
6920 5907
6920 1306
6920 1303
6919 9748
6919 8900
6919 8011
6919 5993
6919 624
6919 399
6918 9291
6918 8567
6918 7196
6918 4200
6918 2819
6918 2555
6917 8420
6917 8178
6917 7405
6917 1492
6917 192
6917 84
6916 7302
6916 6781
6916 6467
6916 4757
6915 2098
6915 1520
6915 329
6914 434
6914 200
6914 19
6913 3799
6913 416
6913 106
6912 1594
6912 1189
6912 419
6911 6059
6911 3713
6911 90
6910 5351
6910 2768
6910 2192
6909 6934
6909 4523
6909 93
6909 4
6908 4330
6908 634
6908 184
6907 7824
6907 5226
6907 5136
6907 2094
6906 5876
6906 5103
6906 192
6905 8822
6905 7701
6905 2058
6905 1154
6905 430
6904 8273
6904 1920
6904 98
6904 59
6903 4390
6903 3123
6903 1257
6902 2989
6902 604
6902 23
6901 3431
6901 1396
6901 332
6900 8921
6900 8422
6900 2786
6900 910
6900 49
6899 8082
6899 6198
6899 1010
6899 742
6898 6212
6898 1849
6898 1265
6897 5908
6897 5412
6897 117
6896 9740
6896 9106
6896 8988
6896 7935
6896 6234
6896 2881
6896 187
6895 9554
6895 8384
6895 1341
6895 1079
6895 122
6894 8399
6894 3357
6894 704
6894 671
6893 6740
6893 843
6893 227
6892 4466
6892 2515
6892 252
6891 1661
6891 995
6891 29
6890 8169
6890 7394
6890 2768
6890 540
6890 5
6889 6570
6889 4357
6889 19
6888 3299
6888 2237
6888 1878
6887 9039
6887 6743
6887 4254
6887 250
6886 188
6886 39
6886 16
6885 5950
6885 4319
6885 437
6884 5123
6884 1352
6884 3
6883 2745
6883 1775
6883 799
6882 6759
6882 4960
6882 209
6881 9668
6881 3027
6881 2294
6881 1485
6880 1639
6880 372
6880 6
6879 8553
6879 7059
6879 2847
6879 496
6879 53
6878 2881
6878 1704
6878 244
6877 8704
6877 5778
6877 2813
6877 2012
6876 7727
6876 3449
6876 3213
6876 49
6875 2005
6875 91
6875 43
6874 6464
6874 4524
6874 1002
6873 3785
6873 2664
6873 226
6872 9109
6872 2891
6872 1874
6872 1648
6871 3608
6871 2741
6871 456
6870 6458
6870 2332
6870 922
6869 3071
6869 597
6869 414
6868 6816
6868 1775
6868 31
6867 9949
6867 3804
6867 2700
6867 366
6866 9000
6866 803
6866 227
6866 14
6865 5593
6865 4180
6865 759
6864 7160
6864 6526
6864 654
6864 326
6863 3286
6863 1786
6863 454
6862 9342
6862 7069
6862 3838
6862 2532
6862 223
6861 8340
6861 7352
6861 1119
6861 593
6861 345
6860 7206
6860 4032
6860 602
6860 192
6859 8251
6859 2446
6859 1671
6859 77
6858 6190
6858 5012
6858 105
6857 9307
6857 9220
6857 6188
6857 848
6857 416
6856 7098
6856 5477
6856 2546
6856 44
6855 9939
6855 4740
6855 3627
6855 3423
6854 8644
6854 8254
6854 4041
6854 1364
6854 222
6853 1578
6853 1406
6853 1176
6852 7447
6852 1491
6852 301
6852 52
6851 9934
6851 1371
6851 655
6851 26
6850 4185
6850 4077
6850 746
6849 7274
6849 4772
6849 1341
6849 501
6848 2827
6848 2776
6848 1976
6847 3652
6847 332
6847 15
6846 4770
6846 993
6846 5
6845 6715
6845 2552
6845 1056
6844 3448
6844 382
6844 5
6843 6339
6843 4279
6843 72
6842 8944
6842 5339
6842 3935
6842 450
6841 7572
6841 2569
6841 1327
6841 78
6840 8837
6840 1753
6840 429
6840 64
6839 9795
6839 8515
6839 4544
6839 3540
6839 961
6838 5341
6838 723
6838 20
6837 5105
6837 726
6837 304
6836 702
6836 12
6836 5
6835 1020
6835 455
6835 56
6834 518
6834 310
6834 91
6833 8804
6833 2003
6833 1165
6833 5
6832 5649
6832 1071
6832 29
6831 2922
6831 1935
6831 5
6830 2541
6830 865
6830 723
6829 9715
6829 5740
6829 1730
6829 923
6828 8130
6828 5652
6828 4515
6828 204
6827 5576
6827 1977
6827 188
6826 8429
6826 7311
6826 935
6826 396
6826 0
6825 4620
6825 2442
6825 791
6824 8465
6824 4903
6824 4286
6824 1608
6823 9284
6823 5042
6823 4803
6823 153
6822 9767
6822 2660
6822 712
6822 0
6821 4688
6821 676
6821 17
6820 8249
6820 7181
6820 5280
6820 1927
6820 642
6819 1906
6819 641
6819 297
6818 3961
6818 1058
6818 56
6817 8566
6817 2682
6817 1512
6817 458
6816 6868
6816 6358
6816 2424
6816 60
6815 1307
6815 1132
6815 540
6814 1478
6814 309
6814 184
6813 4738
6813 783
6813 583
6812 6074
6812 3654
6812 6
6811 4957
6811 3942
6811 100
6810 8245
6810 5092
6810 2971
6810 1818
6809 7507
6809 3861
6809 2851
6809 543
6808 6020
6808 1714
6808 132
6807 7984
6807 4843
6807 4090
6807 3722
6806 4957
6806 3577
6806 171
6805 7982
6805 182
6805 98
6805 15
6804 4988
6804 711
6804 57
6803 9448
6803 7827
6803 3221
6803 227
6803 182
6802 5279
6802 1750
6802 1129
6801 5465
6801 3676
6801 186
6800 1112
6800 225
6800 104
6799 8547
6799 2262
6799 550
6799 12
6798 7655
6798 4620
6798 879
6798 60
6797 8205
6797 8033
6797 1948
6797 1723
6797 28
6796 9426
6796 328
6796 113
6796 50
6795 3809
6795 2924
6795 141
6794 5682
6794 5294
6794 321
6793 2918
6793 1002
6793 341
6792 5468
6792 1640
6792 573
6791 9594
6791 2203
6791 26
6791 19
6790 8925
6790 2572
6790 1925
6790 583
6789 7672
6789 2381
6789 917
6789 608
6788 6158
6788 5198
6788 438
6787 4785
6787 4692
6787 518
6786 2150
6786 1489
6786 725
6785 4527
6785 2088
6785 626
6784 5226
6784 4551
6784 2261
6783 6981
6783 6471
6783 6195
6783 1363
6782 6681
6782 3086
6782 406
6781 6916
6781 5001
6781 3084
6781 764
6780 5258
6780 2665
6780 549
6779 5003
6779 4085
6779 153
6778 8155
6778 7506
6778 3050
6778 1910
6778 903
6777 9193
6777 3049
6777 869
6777 178
6776 9798
6776 4938
6776 4673
6776 3461
6775 2870
6775 176
6775 114
6774 9691
6774 9242
6774 7960
6774 2401
6774 1512
6774 6
6773 6511
6773 767
6773 94
6772 3467
6772 2313
6772 331
6771 4377
6771 1750
6771 281
6770 8909
6770 2926
6770 2775
6770 0
6769 7681
6769 6970
6769 4483
6769 1774
6769 1082
6768 4997
6768 126
6768 104
6767 2570
6767 2324
6767 934
6766 7017
6766 990
6766 948
6766 184
6765 2676
6765 759
6765 63
6764 3537
6764 634
6764 298
6763 9647
6763 4098
6763 1970
6763 9
6762 5712
6762 1231
6762 393
6761 1137
6761 680
6761 292
6760 7383
6760 1238
6760 245
6760 7
6759 8680
6759 6882
6759 3698
6759 1972
6759 887
6758 3605
6758 982
6758 900
6757 9319
6757 2216
6757 1638
6757 4
6756 7107
6756 4870
6756 4817
6756 1000
6755 7998
6755 7213
6755 2689
6755 405
6755 292
6754 8874
6754 5925
6754 2248
6754 388
6753 2161
6753 1036
6753 1006
6752 8180
6752 4752
6752 3647
6752 2344
6751 5352
6751 4162
6751 1199
6750 8850
6750 3358
6750 445
6750 95
6749 5539
6749 3457
6749 2293
6748 4658
6748 4474
6748 174
6747 9123
6747 2729
6747 464
6747 33
6746 4449
6746 343
6746 247
6745 5930
6745 4896
6745 1986
6744 6228
6744 2188
6744 1944
6743 6887
6743 6511
6743 1188
6743 3
6742 2965
6742 522
6742 21
6741 3006
6741 1496
6741 146
6740 6893
6740 1660
6740 509
6740 400
6739 5361
6739 5171
6739 4936
6738 1686
6738 1495
6738 326
6737 4230
6737 1595
6737 1477
6736 5695
6736 97
6736 6
6735 8736
6735 6059
6735 2435
6735 391
6734 2941
6734 1670
6734 1020
6733 4717
6733 1707
6733 0
6732 3706
6732 3229
6732 26
6731 3875
6731 124
6731 9
6730 9774
6730 8794
6730 1610
6730 1514
6730 1089
6729 7473
6729 2079
6729 187
6729 55
6728 4990
6728 3939
6728 3389
6727 7500
6727 2851
6727 1616
6727 591
6726 8044
6726 1736
6726 532
6726 107
6725 8455
6725 4074
6725 3998
6725 117
6724 6334
6724 5716
6724 1301
6723 1349
6723 228
6723 149
6722 4786
6722 834
6722 11
6721 6039
6721 1849
6721 405
6720 3456
6720 3247
6720 199
6719 2907
6719 2547
6719 45
6718 9845
6718 8591
6718 5527
6718 402
6718 4
6717 1374
6717 673
6717 644
6716 9556
6716 8702
6716 5850
6716 5361
6716 2843
6715 9513
6715 9117
6715 6845
6715 5997
6715 4703
6715 222
6714 8092
6714 4993
6714 4037
6714 3482
6713 2945
6713 160
6713 20
6712 9709
6712 7213
6712 4435
6712 4144
6712 127
6711 7614
6711 4741
6711 2293
6711 520
6710 2549
6710 948
6710 61
6709 3159
6709 1784
6709 1730
6708 3801
6708 364
6708 100
6707 8480
6707 8034
6707 3626
6707 2587
6707 0
6706 7908
6706 5998
6706 5224
6706 393
6705 3085
6705 2326
6705 613
6704 6311
6704 3658
6704 188
6703 6301
6703 3162
6703 3006
6702 3340
6702 413
6702 13
6701 4221
6701 3995
6701 2365
6700 1655
6700 1427
6700 127
6699 4135
6699 264
6699 50
6698 8615
6698 4176
6698 3482
6698 1287
6697 8982
6697 4621
6697 3924
6697 246
6696 4853
6696 4305
6696 2126
6695 4742
6695 2592
6695 751
6694 4077
6694 675
6694 30
6693 6990
6693 5301
6693 2112
6693 1012
6692 9643
6692 8184
6692 7290
6692 4710
6692 857
6692 72
6691 2464
6691 959
6691 7
6690 7066
6690 6984
6690 2832
6690 1524
6690 1488
6689 4863
6689 733
6689 193
6688 5929
6688 3259
6688 2871
6687 3980
6687 3688
6687 828
6686 6354
6686 2733
6686 1754
6685 430
6685 222
6685 114
6684 8023
6684 6447
6684 767
6684 655
6683 6270
6683 434
6683 5
6682 8723
6682 4550
6682 771
6682 158
6681 6782
6681 3114
6681 2668
6681 101
6680 9373
6680 3580
6680 893
6680 337
6679 1399
6679 742
6679 61
6678 9849
6678 4286
6678 266
6678 19
6677 7014
6677 5898
6677 5648
6677 2734
6676 3319
6676 2743
6676 639
6675 7042
6675 5310
6675 4750
6675 380
6674 8307
6674 2206
6674 1725
6674 77
6673 8879
6673 2681
6673 809
6673 478
6672 6335
6672 1241
6672 434
6671 6532
6671 4507
6671 3584
6670 8752
6670 3809
6670 2522
6670 526
6669 3992
6669 530
6669 10
6668 851
6668 51
6668 7
6667 8410
6667 7711
6667 7185
6667 3174
6667 629
6667 367
6666 9742
6666 6568
6666 3844
6666 429
6665 7490
6665 1984
6665 338
6665 52
6664 5963
6664 861
6664 55
6663 6361
6663 2107
6663 1105
6662 3595
6662 326
6662 114
6661 6060
6661 5686
6661 1682
6660 7868
6660 639
6660 446
6660 6
6659 8727
6659 8134
6659 1359
6659 818
6659 22
6658 3612
6658 906
6658 4
6657 1750
6657 812
6657 592
6656 7864
6656 7768
6656 3215
6656 1744
6656 2
6655 9911
6655 7244
6655 5822
6655 1851
6655 18
6654 6632
6654 593
6654 510
6653 4146
6653 3432
6653 2216
6652 5758
6652 4965
6652 3130
6651 8795
6651 1657
6651 1377
6651 577
6650 3930
6650 2812
6650 1671
6649 9483
6649 2188
6649 298
6649 294
6648 9491
6648 6489
6648 4506
6648 951
6647 4971
6647 276
6647 123
6646 1576
6646 165
6646 98
6645 1284
6645 1023
6645 543
6644 2297
6644 1333
6644 13
6643 6341
6643 3213
6643 2487
6642 5158
6642 1583
6642 914
6641 7773
6641 2962
6641 294
6641 169
6640 5257
6640 4302
6640 1651
6639 9126
6639 3381
6639 2080
6639 0
6638 9393
6638 8676
6638 5952
6638 2792
6638 198
6637 2363
6637 923
6637 740
6636 2855
6636 2232
6636 525
6635 2335
6635 2072
6635 1143
6634 4060
6634 2819
6634 1031
6633 8689
6633 7729
6633 5156
6633 1171
6633 1124
6632 6654
6632 4152
6632 2788
6632 249
6631 193
6631 176
6631 7
6630 4720
6630 3269
6630 385
6629 2212
6629 1651
6629 149
6628 5362
6628 1252
6628 235
6627 9554
6627 3104
6627 655
6627 96
6626 1890
6626 1780
6626 1515
6625 9408
6625 3661
6625 644
6625 49
6624 9633
6624 5739
6624 3137
6624 100
6623 3751
6623 3329
6623 735
6622 9021
6622 8092
6622 4130
6622 228
6622 98
6621 7599
6621 5345
6621 1495
6621 147
6620 7133
6620 3056
6620 2001
6620 182
6619 3787
6619 3612
6619 294
6618 478
6618 141
6618 53
6617 9819
6617 9205
6617 7744
6617 5977
6617 5
6617 3
6616 2799
6616 2120
6616 1397
6615 8487
6615 4283
6615 2199
6615 2141
6614 5655
6614 1096
6614 1069
6613 8523
6613 4126
6613 1012
6613 381
6612 2370
6612 400
6612 5
6611 8767
6611 7532
6611 6231
6611 3386
6611 72
6610 3373
6610 2551
6610 2539
6609 9313
6609 4802
6609 577
6609 33
6608 3586
6608 1648
6608 241
6607 4200
6607 3288
6607 1599
6606 6088
6606 5991
6606 1674
6605 9466
6605 8178
6605 4095
6605 2888
6605 648
6604 3335
6604 3006
6604 1880
6603 1265
6603 216
6603 200
6602 2743
6602 225
6602 43
6601 8025
6601 1465
6601 1349
6601 900
6600 4601
6600 2626
6600 386
6599 9381
6599 8164
6599 7455
6599 3520
6599 2527
6599 56
6598 9328
6598 3118
6598 1027
6598 817
6597 1599
6597 1156
6597 72
6596 7683
6596 7149
6596 3236
6596 1448
6596 591
6595 2426
6595 959
6595 142
6594 6016
6594 1244
6594 636
6593 5668
6593 1096
6593 514
6592 4224
6592 4221
6592 1639
6591 5149
6591 4787
6591 329
6590 5331
6590 2949
6590 82
6589 3960
6589 2537
6589 391
6588 7705
6588 1866
6588 699
6588 188
6587 5306
6587 3614
6587 806
6586 5552
6586 1237
6586 778
6585 9325
6585 7414
6585 4213
6585 2936
6585 305
6584 7562
6584 5113
6584 132
6584 28
6583 779
6583 366
6583 260
6582 9637
6582 2773
6582 2021
6582 1741
6581 6044
6581 2178
6581 3
6580 7753
6580 3988
6580 2038
6580 572
6579 393
6579 9
6579 7
6578 5359
6578 606
6578 599
6577 5951
6577 2221
6577 1245
6576 2613
6576 2360
6576 468
6575 8774
6575 4029
6575 2715
6575 866
6574 8695
6574 3171
6574 460
6574 0
6573 7530
6573 7453
6573 184
6573 13
6573 9
6572 826
6572 248
6572 122
6571 8115
6571 5155
6571 610
6571 18
6570 9508
6570 6889
6570 3705
6570 613
6570 233
6569 417
6569 189
6569 29
6568 6666
6568 4483
6568 3218
6568 3129
6567 4229
6567 426
6567 9
6566 9384
6566 3276
6566 430
6566 148
6565 8189
6565 3352
6565 1645
6565 265
6564 8179
6564 5760
6564 2105
6564 1923
6563 8815
6563 8533
6563 2591
6563 1137
6563 687
6562 9322
6562 2452
6562 415
6562 7
6561 2773
6561 2094
6561 122
6560 5894
6560 2529
6560 1416
6559 7621
6559 2499
6559 2057
6559 741
6558 7031
6558 5457
6558 153
6558 0
6557 9390
6557 4469
6557 3263
6557 138
6556 8637
6556 3051
6556 905
6556 901
6555 7122
6555 5365
6555 774
6555 387
6554 3629
6554 2912
6554 556
6553 8979
6553 7899
6553 1472
6553 1454
6553 1414
6552 5193
6552 911
6552 270
6551 6455
6551 2561
6551 301
6550 9306
6550 7268
6550 5597
6550 755
6550 100
6549 9005
6549 8833
6549 8617
6549 2880
6549 2326
6549 1422
6548 7371
6548 3163
6548 2939
6548 186
6547 2708
6547 685
6547 141
6546 8653
6546 7189
6546 3442
6546 2653
6546 256
6545 5094
6545 3282
6545 355
6544 5413
6544 4186
6544 2400
6543 5367
6543 4583
6543 30
6542 7501
6542 1699
6542 485
6542 420
6541 5383
6541 1752
6541 14
6540 8985
6540 4110
6540 1837
6540 416
6539 3049
6539 1112
6539 36
6538 9865
6538 9007
6538 4953
6538 4180
6538 93
6537 6434
6537 6253
6537 3677
6536 5277
6536 1312
6536 56
6535 6214
6535 5864
6535 1864
6534 4562
6534 4103
6534 416
6533 470
6533 461
6533 124
6532 8519
6532 6671
6532 4144
6532 113
6532 27
6531 1451
6531 239
6531 1
6530 76
6530 55
6530 4
6529 9378
6529 3596
6529 1802
6529 267
6528 5286
6528 3548
6528 260
6527 7949
6527 2633
6527 1438
6527 4
6526 9887
6526 7040
6526 6864
6526 5073
6526 1949
6526 6
6525 3223
6525 2232
6525 377
6524 3811
6524 2871
6524 1699
6523 9592
6523 4977
6523 4940
6523 3874
6522 8980
6522 426
6522 263
6522 226
6521 2233
6521 764
6521 46
6520 9161
6520 7890
6520 4369
6520 13
6520 4
6519 4164
6519 3179
6519 210
6518 7155
6518 4530
6518 1556
6518 1513
6517 5741
6517 920
6517 326
6516 2575
6516 1970
6516 912
6515 9971
6515 696
6515 384
6515 199
6514 1418
6514 531
6514 503
6513 8500
6513 7405
6513 5680
6513 4044
6513 2489
6512 7698
6512 2410
6512 827
6512 131
6511 8817
6511 6773
6511 6743
6511 2984
6511 142
6511 100
6510 7827
6510 5218
6510 4409
6510 324
6509 7380
6509 4709
6509 2344
6509 630
6508 8421
6508 2969
6508 2796
6508 2645
6507 4144
6507 1120
6507 558
6506 7964
6506 3527
6506 2326
6506 124
6505 5752
6505 1339
6505 301
6504 1965
6504 1474
6504 1145
6503 3908
6503 349
6503 142
6502 7849
6502 6242
6502 5885
6502 15
6501 9901
6501 8075
6501 2836
6501 1057
6501 262
6500 4478
6500 456
6500 52
6499 1968
6499 1124
6499 0
6498 1416
6498 502
6498 145
6497 781
6497 521
6497 126
6496 1730
6496 1158
6496 476
6495 4846
6495 537
6495 436
6494 8036
6494 3160
6494 2692
6494 18
6493 6451
6493 3909
6493 72
6492 3893
6492 2631
6492 1704
6491 3954
6491 2009
6491 7
6490 9291
6490 2079
6490 310
6490 213
6489 9689
6489 8577
6489 7735
6489 6648
6489 2103
6489 9
6489 4
6488 4431
6488 2259
6488 1099
6487 3111
6487 1843
6487 83
6486 3693
6486 2140
6486 7
6485 3732
6485 992
6485 107
6484 4603
6484 4549
6484 169
6483 4812
6483 2248
6483 426
6482 7630
6482 4710
6482 1332
6482 55
6481 3253
6481 2354
6481 1879
6480 9100
6480 5409
6480 2503
6480 19
6479 7192
6479 3662
6479 2232
6479 1130
6478 9966
6478 2762
6478 1358
6478 34
6477 6155
6477 4267
6477 58
6476 5188
6476 3467
6476 1663
6475 3749
6475 457
6475 84
6474 1567
6474 442
6474 33
6473 2718
6473 1864
6473 109
6472 9733
6472 5313
6472 2278
6472 1017
6471 7137
6471 6783
6471 5456
6471 4800
6471 3798
6470 4371
6470 738
6470 14
6469 9754
6469 8287
6469 7056
6469 6381
6469 2369
6469 1499
6468 4687
6468 1306
6468 667
6467 6916
6467 3202
6467 2407
6467 4
6466 9358
6466 7582
6466 5683
6466 4954
6466 86
6465 5761
6465 1306
6465 12
6464 6874
6464 1869
6464 1024
6464 169
6463 6271
6463 4467
6463 1062
6462 4835
6462 2559
6462 932
6461 1888
6461 404
6461 0
6460 9763
6460 3139
6460 463
6460 383
6459 1283
6459 508
6459 14
6458 6870
6458 5279
6458 4983
6458 1821
6457 5479
6457 4270
6457 1586
6456 3336
6456 1420
6456 933
6455 7872
6455 7643
6455 6551
6455 3274
6455 2977
6455 1782
6454 3897
6454 1892
6454 542
6453 8381
6453 3190
6453 266
6453 115
6452 9110
6452 2007
6452 37
6452 0
6451 6493
6451 5576
6451 421
6451 37
6450 406
6450 260
6450 176
6449 8160
6449 7198
6449 6012
6449 2829
6449 1859
6448 9669
6448 3619
6448 3460
6448 1836
6447 9515
6447 6684
6447 5496
6447 3895
6447 89
6446 4467
6446 3698
6446 2251
6445 5689
6445 156
6445 14
6444 2817
6444 2688
6444 1257
6443 5571
6443 1009
6443 760
6442 7987
6442 4401
6442 3232
6442 3
6441 7303
6441 659
6441 410
6441 10
6440 9007
6440 5114
6440 4163
6440 206
6439 3618
6439 2416
6439 307
6438 5816
6438 1953
6438 365
6437 8154
6437 4387
6437 4034
6437 91
6436 3731
6436 2622
6436 711
6435 6114
6435 1588
6435 1520
6434 6537
6434 5066
6434 2830
6434 9
6433 9291
6433 9282
6433 5720
6433 7
6433 1
6432 1805
6432 389
6432 385
6431 7706
6431 3439
6431 1698
6431 57
6430 7493
6430 3542
6430 2045
6430 23
6429 2730
6429 1231
6429 342
6428 7843
6428 2048
6428 1396
6428 1056
6427 5185
6427 1017
6427 174
6426 4929
6426 556
6426 156
6425 729
6425 560
6425 26
6424 8966
6424 8372
6424 7222
6424 4143
6424 3543
6424 1584
6423 9303
6423 1005
6423 782
6423 2
6422 2800
6422 454
6422 5
6421 9112
6421 7612
6421 2182
6421 259
6421 100
6420 4423
6420 3700
6420 2865
6419 5582
6419 4110
6419 1249
6418 4979
6418 2143
6418 3
6417 6220
6417 4299
6417 279
6416 9192
6416 9104
6416 7257
6416 2767
6416 1169
6416 1014
6415 8704
6415 2475
6415 38
6415 6
6414 3486
6414 1138
6414 20
6413 9227
6413 164
6413 113
6413 110
6412 9993
6412 8392
6412 5655
6412 4543
6412 174
6411 9147
6411 1487
6411 599
6411 290
6410 9913
6410 7128
6410 2689
6410 1914
6410 311
6409 3270
6409 2038
6409 1057
6408 2284
6408 1767
6408 880
6407 9308
6407 8356
6407 2282
6407 316
6407 209
6406 9197
6406 7376
6406 5314
6406 3381
6406 33
6405 5280
6405 1654
6405 253
6404 7859
6404 2148
6404 290
6404 37
6403 9678
6403 5249
6403 4891
6403 16
6402 9025
6402 8866
6402 8127
6402 2998
6402 149
6402 36
6401 9640
6401 8907
6401 5026
6401 4312
6401 4240
6400 2382
6400 260
6400 178
6399 4869
6399 2587
6399 2520
6398 4312
6398 170
6398 3
6397 7413
6397 4163
6397 3137
6397 1087
6396 9542
6396 7678
6396 5651
6396 4497
6396 1266
6395 9409
6395 7175
6395 4711
6395 2533
6395 679
6394 7635
6394 5761
6394 4762
6394 2095
6393 8016
6393 5223
6393 84
6393 42
6392 7944
6392 4560
6392 2646
6392 356
6391 7786
6391 6231
6391 2962
6391 586
6390 7600
6390 2619
6390 1362
6390 499
6389 5353
6389 583
6389 551
6388 8052
6388 7542
6388 5659
6388 612
6388 43
6387 2248
6387 650
6387 456
6386 5678
6386 3173
6386 613
6385 9500
6385 8057
6385 5293
6385 4147
6385 791
6384 8033
6384 2668
6384 1228
6384 255
6383 9739
6383 8399
6383 5104
6383 1128
6383 392
6382 3335
6382 545
6382 532
6381 6469
6381 2863
6381 1486
6381 375
6380 2412
6380 84
6380 5
6379 8056
6379 7841
6379 3659
6379 179
6379 72
6378 5999
6378 1695
6378 14
6377 9840
6377 7194
6377 3947
6377 3206
6377 2375
6376 2313
6376 536
6376 44
6375 8733
6375 8124
6375 5863
6375 1185
6375 393
6374 6240
6374 2777
6374 2043
6373 9162
6373 7746
6373 4573
6373 1598
6373 107
6372 3893
6372 738
6372 178
6371 1131
6371 740
6371 583
6370 9620
6370 8004
6370 7768
6370 7581
6370 3891
6370 713
6370 89
6369 4137
6369 1491
6369 235
6368 5298
6368 1775
6368 180
6367 8364
6367 3637
6367 1162
6367 140
6366 6323
6366 2786
6366 1662
6365 4949
6365 4923
6365 2
6364 2501
6364 2203
6364 144
6363 1573
6363 1545
6363 702
6362 8940
6362 1338
6362 686
6362 100
6361 6663
6361 2949
6361 833
6361 332
6360 5061
6360 3336
6360 51
6359 3345
6359 236
6359 7
6358 9610
6358 6816
6358 728
6358 713
6358 549
6357 4618
6357 209
6357 7
6356 2434
6356 1324
6356 436
6355 4303
6355 2613
6355 191
6354 6686
6354 4999
6354 2773
6354 3
6353 3768
6353 1768
6353 1390
6352 599
6352 141
6352 95
6351 3978
6351 2538
6351 1400
6350 683
6350 456
6350 48
6349 6292
6349 5283
6349 1419
6348 2584
6348 345
6348 324
6347 7882
6347 5540
6347 1506
6347 150
6346 9226
6346 2499
6346 307
6346 108
6345 4115
6345 584
6345 135
6344 8337
6344 2851
6344 2768
6344 560
6343 5741
6343 2327
6343 1665
6342 5742
6342 2541
6342 345
6341 8063
6341 7864
6341 7231
6341 6643
6341 5799
6341 5545
6341 762
6340 6235
6340 5351
6340 4755
6339 6843
6339 5938
6339 5307
6339 245
6338 9967
6338 4956
6338 122
6338 6
6337 8864
6337 7187
6337 5290
6337 4853
6337 125
6336 5365
6336 4226
6336 2441
6335 6672
6335 2740
6335 1739
6335 1012
6334 9021
6334 6724
6334 2429
6334 30
6334 0
6333 3206
6333 1257
6333 117
6332 4014
6332 3540
6332 417
6331 7508
6331 7472
6331 6930
6331 3079
6331 1483
6331 39
6330 2831
6330 478
6330 5
6329 5011
6329 2743
6329 2194
6328 2659
6328 565
6328 135
6327 7004
6327 6996
6327 3231
6327 1591
6327 412
6326 1956
6326 1226
6326 1056
6325 4206
6325 2428
6325 1
6324 5750
6324 1817
6324 161
6323 6366
6323 4709
6323 3128
6323 2316
6322 2699
6322 1515
6322 607
6321 2219
6321 537
6321 5
6320 3829
6320 823
6320 495
6319 7556
6319 4336
6319 4095
6319 1467
6318 2464
6318 2212
6318 631
6317 2332
6317 946
6317 329
6316 6982
6316 3343
6316 265
6316 12
6315 7310
6315 7102
6315 4705
6315 3336
6315 1946
6314 8990
6314 7712
6314 5191
6314 3624
6314 633
6313 8197
6313 1098
6313 400
6313 353
6312 9711
6312 8391
6312 274
6312 86
6312 84
6311 9472
6311 6704
6311 718
6311 128
6311 72
6310 8314
6310 3081
6310 448
6310 16
6309 8108
6309 4125
6309 1289
6309 1109
6308 5311
6308 3087
6308 0
6307 5660
6307 4360
6307 343
6306 6041
6306 2998
6306 254
6305 3082
6305 3010
6305 1293
6304 4701
6304 4350
6304 5
6303 3997
6303 342
6303 216
6302 521
6302 426
6302 21
6301 8560
6301 6703
6301 608
6301 523
6301 46
6300 9807
6300 4517
6300 1347
6300 228
6299 2749
6299 1664
6299 125
6298 9921
6298 1942
6298 1079
6298 63
6297 8886
6297 7770
6297 5152
6297 2682
6297 1046
6296 5827
6296 5723
6296 1902
6295 9611
6295 4305
6295 831
6295 468
6294 9012
6294 7547
6294 5488
6294 4389
6294 255
6293 9474
6293 5098
6293 3124
6293 110
6292 6349
6292 3217
6292 966
6292 2
6291 9595
6291 611
6291 384
6291 193
6290 4564
6290 3969
6290 2615
6289 1767
6289 1535
6289 356
6288 3184
6288 2049
6288 883
6287 7659
6287 7244
6287 7163
6287 2460
6287 92
6287 16
6286 8958
6286 7243
6286 5368
6286 2682
6286 1873
6285 7939
6285 4321
6285 343
6285 3
6284 1987
6284 1673
6284 1538
6283 8076
6283 1419
6283 343
6283 37
6282 2025
6282 1945
6282 511
6281 9325
6281 7920
6281 5957
6281 5934
6281 459
6280 6143
6280 1563
6280 901
6279 3124
6279 2041
6279 48
6278 3271
6278 1478
6278 104
6277 5958
6277 4269
6277 10
6276 2510
6276 1341
6276 673
6275 4893
6275 2854
6275 304
6274 3658
6274 190
6274 153
6273 510
6273 301
6273 33
6272 5847
6272 5303
6272 4
6271 8638
6271 6463
6271 2968
6271 1945
6271 25
6270 6683
6270 5279
6270 2417
6270 704
6269 3164
6269 566
6269 486
6268 8930
6268 1475
6268 1300
6268 110
6267 3505
6267 2852
6267 364
6266 9991
6266 4292
6266 1283
6266 723
6265 5280
6265 2061
6265 1735
6264 598
6264 304
6264 120
6263 2198
6263 1143
6263 143
6262 9733
6262 9609
6262 7756
6262 7079
6262 2295
6262 368
6262 248
6261 9463
6261 5868
6261 3974
6261 9
6260 7855
6260 927
6260 725
6260 117
6259 9557
6259 6242
6259 4275
6259 936
6258 9086
6258 5529
6258 473
6258 300
6257 7373
6257 3883
6257 660
6257 572
6256 5170
6256 3694
6256 2713
6255 8744
6255 3701
6255 362
6255 16
6254 9883
6254 7262
6254 5813
6254 890
6254 183
6253 9293
6253 6537
6253 3394
6253 532
6253 5
6252 9476
6252 7535
6252 2512
6252 935
6252 117
6251 2705
6251 2064
6251 2
6250 5530
6250 5075
6250 2063
6249 2854
6249 1083
6249 23
6248 4867
6248 4630
6248 4375
6247 5567
6247 2394
6247 100
6246 4891
6246 2382
6246 176
6245 4969
6245 2158
6245 1849
6244 7038
6244 4716
6244 4063
6244 3587
6243 5703
6243 3416
6243 354
6242 9418
6242 7070
6242 6978
6242 6502
6242 6259
6242 4359
6242 1264
6242 273
6241 3057
6241 2493
6241 1668
6240 6374
6240 2989
6240 2855
6240 648
6239 8099
6239 7294
6239 5878
6239 3723
6239 2091
6238 2937
6238 712
6238 30
6237 8496
6237 1234
6237 698
6237 583
6236 4014
6236 878
6236 14
6235 6340
6235 4654
6235 2237
6235 83
6234 6896
6234 1333
6234 1004
6234 16
6233 2341
6233 1742
6233 289
6232 7100
6232 4765
6232 4427
6232 1851
6231 7998
6231 6611
6231 6391
6231 3364
6231 932
6231 58
6230 2963
6230 102
6230 61
6229 5348
6229 851
6229 32
6228 7273
6228 6744
6228 6057
6228 2089
6228 196
6227 3457
6227 2001
6227 29
6226 8246
6226 4087
6226 1311
6226 76
6225 5906
6225 4316
6225 2546
6224 2925
6224 1102
6224 137
6223 7062
6223 5065
6223 3411
6223 303
6222 6126
6222 2983
6222 2431
6221 5498
6221 2861
6221 11
6220 6417
6220 1197
6220 338
6220 221
6219 8127
6219 3583
6219 714
6219 165
6218 1564
6218 1271
6218 199
6217 5216
6217 3663
6217 63
6216 6134
6216 1544
6216 395
6215 1150
6215 859
6215 227
6214 9400
6214 6535
6214 2512
6214 1674
6214 12
6213 9436
6213 2023
6213 747
6213 316
6212 8438
6212 6898
6212 5273
6212 4680
6212 1144
6211 8931
6211 2150
6211 1451
6211 166
6210 4098
6210 492
6210 27
6209 3692
6209 3457
6209 1664
6208 1255
6208 783
6208 498
6207 7569
6207 3050
6207 1584
6207 130
6206 3875
6206 3075
6206 559
6205 782
6205 774
6205 182
6204 8462
6204 8291
6204 8221
6204 7027
6204 1435
6204 954
6204 779
6203 2744
6203 2142
6203 413
6202 4535
6202 2490
6202 80
6201 1510
6201 78
6201 12
6200 5975
6200 243
6200 203
6199 1194
6199 881
6199 192
6198 6941
6198 6899
6198 5591
6198 1165
6198 337
6197 5023
6197 1450
6197 869
6196 5078
6196 173
6196 104
6195 8061
6195 6783
6195 774
6195 308
6195 42
6194 5446
6194 1581
6194 128
6193 4276
6193 1785
6193 322
6192 8781
6192 5550
6192 4164
6192 3960
6191 2518
6191 457
6191 439
6190 8370
6190 6858
6190 3470
6190 410
6190 94
6189 4211
6189 708
6189 224
6188 6857
6188 5225
6188 201
6188 150
6187 5054
6187 3523
6187 27
6186 5788
6186 4123
6186 1689
6185 4582
6185 1750
6185 1520
6184 9030
6184 7278
6184 654
6184 576
6184 421
6183 5797
6183 4125
6183 102
6182 9649
6182 1794
6182 668
6182 44
6181 4643
6181 1648
6181 57
6180 4026
6180 3576
6180 1653
6179 7422
6179 668
6179 565
6179 2
6178 9547
6178 9386
6178 6948
6178 4682
6178 2202
6178 1093
6177 9252
6177 441
6177 291
6177 55
6176 5398
6176 14
6176 3
6175 5835
6175 5359
6175 153
6174 5132
6174 4755
6174 2374
6173 8911
6173 3770
6173 1258
6173 33
6172 3901
6172 3281
6172 18
6171 9614
6171 2437
6171 1438
6171 794
6170 3437
6170 2791
6170 1098
6169 9034
6169 7063
6169 3172
6169 2482
6169 149
6168 2786
6168 1622
6168 1125
6167 8932
6167 4871
6167 3517
6167 304
6166 2423
6166 1657
6166 176
6165 9832
6165 9154
6165 8618
6165 7841
6165 5310
6165 3097
6165 345
6164 9846
6164 9614
6164 2833
6164 264
6164 7
6163 5689
6163 3389
6163 95
6162 3567
6162 495
6162 16
6161 936
6161 929
6161 881
6160 8562
6160 7018
6160 2037
6160 710
6160 72
6159 4521
6159 550
6159 214
6158 8464
6158 8322
6158 7854
6158 6788
6158 753
6158 656
6158 257
6157 950
6157 748
6157 0
6156 9675
6156 2493
6156 1199
6156 490
6155 7343
6155 6477
6155 4127
6155 664
6155 3
6154 5286
6154 125
6154 6
6153 4242
6153 2433
6153 1306
6152 7249
6152 4532
6152 2593
6152 354
6151 5867
6151 469
6151 193
6150 7748
6150 5044
6150 4436
6150 1141
6149 2763
6149 813
6149 308
6148 9843
6148 7997
6148 4916
6148 4910
6148 2577
6147 8778
6147 7826
6147 5191
6147 2533
6147 1542
6146 8191
6146 5161
6146 1979
6146 1290
6145 8992
6145 8829
6145 1153
6145 1006
6145 901
6144 4001
6144 1059
6144 3
6143 6280
6143 3873
6143 3736
6143 280
6142 3897
6142 3873
6142 3238
6141 5155
6141 3287
6141 1768
6140 9099
6140 9042
6140 5033
6140 4325
6140 562
6139 9679
6139 4571
6139 3462
6139 3099
6138 5706
6138 2403
6138 990
6137 3448
6137 2374
6137 375
6136 7797
6136 4507
6136 1998
6136 363
6135 4823
6135 3690
6135 742
6134 9253
6134 6216
6134 4716
6134 2942
6134 179
6133 5789
6133 5777
6133 38
6132 3210
6132 1041
6132 100
6131 7910
6131 4103
6131 3429
6131 300
6130 2732
6130 1313
6130 123
6129 2577
6129 611
6129 111
6128 4702
6128 3535
6128 974
6127 4805
6127 3816
6127 486
6126 7899
6126 7881
6126 6222
6126 4449
6126 2008
6126 415
6125 3040
6125 2934
6125 779
6124 416
6124 23
6124 9
6123 5737
6123 3328
6123 2975
6122 4536
6122 4211
6122 2884
6121 9135
6121 4948
6121 2339
6121 941
6120 9964
6120 7376
6120 4537
6120 2029
6120 120
6119 9239
6119 4902
6119 4172
6119 3863
6118 7732
6118 2521
6118 1605
6118 183
6117 1481
6117 136
6117 8
6116 2359
6116 2260
6116 645
6115 8123
6115 7222
6115 5592
6115 949
6115 260
6114 6435
6114 5443
6114 1485
6114 196
6113 8261
6113 3468
6113 1427
6113 123
6112 4596
6112 214
6112 10
6111 5153
6111 140
6111 4
6110 4701
6110 839
6110 698
6109 9891
6109 2276
6109 999
6109 856
6108 9120
6108 7742
6108 6010
6108 2535
6108 2078
6107 7181
6107 7163
6107 5056
6107 1463
6107 978
6106 2559
6106 745
6106 171
6105 5108
6105 4672
6105 535
6104 7669
6104 720
6104 396
6104 316
6103 7888
6103 4490
6103 2313
6103 255
6102 713
6102 132
6102 54
6101 5162
6101 2090
6101 666
6100 5533
6100 601
6100 278
6099 9909
6099 4731
6099 4607
6099 3596
6098 3204
6098 2250
6098 21
6097 214
6097 41
6097 28
6096 8250
6096 5998
6096 2612
6096 108
6095 9698
6095 9097
6095 8641
6095 8399
6095 7082
6095 6932
6095 3794
6095 316
6095 41
6094 3925
6094 1750
6094 1715
6093 3438
6093 1335
6093 583
6092 7291
6092 4038
6092 590
6092 187
6091 9265
6091 3543
6091 52
6091 28
6090 698
6090 296
6090 188
6089 8811
6089 4400
6089 3067
6089 20
6088 6606
6088 2222
6088 748
6088 202
6087 8021
6087 876
6087 48
6087 14
6086 7801
6086 4969
6086 1664
6086 1
6085 1891
6085 1658
6085 930
6084 1554
6084 1277
6084 866
6083 9319
6083 1013
6083 338
6083 157
6082 1521
6082 883
6082 605
6081 3088
6081 1025
6081 781
6080 9822
6080 3424
6080 1634
6080 247
6079 9876
6079 8112
6079 5168
6079 3186
6079 2345
6078 8382
6078 2666
6078 572
6078 92
6077 9504
6077 7817
6077 2786
6077 1768
6077 310
6076 3654
6076 2156
6076 197
6075 9623
6075 3543
6075 2605
6075 729
6074 9582
6074 8781
6074 8389
6074 8221
6074 7694
6074 7534
6074 6812
6074 5577
6074 1947
6074 14
6073 9478
6073 8316
6073 3259
6073 2099
6073 178
6072 9865
6072 4164
6072 459
6072 15
6071 7301
6071 5768
6071 5005
6071 2615
6070 8872
6070 374
6070 193
6070 69
6069 9521
6069 1221
6069 634
6069 539
6068 5698
6068 1125
6068 154
6067 7576
6067 4755
6067 3298
6067 1449
6066 8368
6066 3413
6066 850
6066 2
6065 4545
6065 1205
6065 19
6064 2360
6064 1633
6064 204
6063 4551
6063 3520
6063 2606
6062 4334
6062 2817
6062 59
6061 3797
6061 340
6061 28
6060 6661
6060 4228
6060 728
6060 410
6059 7200
6059 6911
6059 6735
6059 5278
6059 3983
6059 1520
6058 8451
6058 2821
6058 845
6058 184
6057 9493
6057 8521
6057 6228
6057 2280
6057 1409
6057 653
6056 5074
6056 3186
6056 529
6055 1782
6055 790
6055 44
6054 9130
6054 2945
6054 1973
6054 226
6053 3192
6053 1782
6053 347
6052 5822
6052 3389
6052 1464
6051 6951
6051 5942
6051 5612
6051 433
6050 5847
6050 2152
6050 984
6049 980
6049 343
6049 44
6048 5935
6048 2218
6048 9
6047 8548
6047 6946
6047 6924
6047 2464
6047 179
6047 20
6046 4208
6046 1020
6046 693
6045 2112
6045 1699
6045 1320
6044 6581
6044 2452
6044 454
6044 61
6043 9634
6043 3747
6043 2746
6043 510
6042 3723
6042 3689
6042 148
6041 6306
6041 4120
6041 532
6041 178
6040 1065
6040 166
6040 84
6039 7383
6039 7337
6039 6721
6039 4815
6039 2862
6039 362
6038 1675
6038 654
6038 176
6037 5437
6037 4338
6037 3133
6036 4608
6036 3871
6036 6
6035 283
6035 87
6035 7
6034 3612
6034 2031
6034 187
6033 9912
6033 1404
6033 1267
6033 138
6032 818
6032 559
6032 454
6031 4245
6031 3056
6031 887
6030 9447
6030 7677
6030 7088
6030 5011
6030 3454
6030 263
6029 9272
6029 9170
6029 8658
6029 7150
6029 5606
6029 5290
6029 4277
6028 4052
6028 1464
6028 184
6027 4755
6027 658
6027 479
6026 4637
6026 3399
6026 183
6025 4127
6025 1263
6025 6
6024 9740
6024 4805
6024 3131
6024 2664
6023 9391
6023 9374
6023 7595
6023 2874
6023 2500
6023 1974
6022 7910
6022 3538
6022 1160
6022 9
6021 8474
6021 4788
6021 43
6021 30
6020 6808
6020 4238
6020 2976
6020 2364
6019 644
6019 228
6019 0
6018 5762
6018 1981
6018 1065
6017 6987
6017 6945
6017 4482
6017 1759
6017 37
6016 9255
6016 8908
6016 6594
6016 4712
6016 976
6016 851
6015 697
6015 506
6015 449
6014 8043
6014 1500
6014 1257
6014 839
6013 4381
6013 3054
6013 182
6012 9703
6012 7374
6012 6449
6012 3990
6012 3319
6012 294
6011 4704
6011 1755
6011 734
6010 7396
6010 6108
6010 3202
6010 2025
6010 1998
6009 5539
6009 5314
6009 4975
6008 2736
6008 2470
6008 1639
6007 8052
6007 2637
6007 864
6007 346
6006 2315
6006 2253
6006 113
6005 8075
6005 665
6005 178
6005 39
6004 7823
6004 5127
6004 2903
6004 107
6003 9500
6003 2741
6003 2680
6003 128
6002 1376
6002 456
6002 30
6001 4488
6001 2276
6001 165
6000 5396
6000 4391
6000 339
5999 9972
5999 9863
5999 6378
5999 3086
5999 1859
5999 705
5998 9785
5998 7403
5998 7113
5998 6706
5998 6096
5998 4334
5998 72
5998 5
5997 7827
5997 6715
5997 3367
5997 185
5997 88
5996 4778
5996 2695
5996 2412
5995 782
5995 153
5995 8
5994 9720
5994 8749
5994 315
5994 165
5994 6
5993 6919
5993 1992
5993 1821
5993 28
5992 8661
5992 3881
5992 870
5992 23
5991 7728
5991 6606
5991 3202
5991 1786
5991 705
5990 5467
5990 1670
5990 489
5989 9630
5989 4551
5989 600
5989 14
5988 8282
5988 7965
5988 3216
5988 3074
5988 1108
5987 9646
5987 9165
5987 8568
5987 7907
5987 5656
5987 4302
5987 1520
5986 4493
5986 2651
5986 1234
5985 3652
5985 1939
5985 342
5984 8646
5984 4573
5984 1568
5984 1123
5983 9139
5983 5646
5983 3540
5983 33
5982 8601
5982 8063
5982 6931
5982 5280
5982 3643
5982 2668
5981 4345
5981 2114
5981 1459
5980 748
5980 708
5980 95
5979 9733
5979 9509
5979 8302
5979 7745
5979 7574
5979 7306
5979 4356
5979 911
5979 285
5978 9211
5978 9192
5978 8161
5978 2439
5978 1916
5978 1492
5977 6617
5977 4524
5977 490
5977 171
5976 4364
5976 1801
5976 82
5975 7971
5975 7798
5975 7520
5975 6200
5975 2569
5975 444
5975 120
5974 8170
5974 5140
5974 1720
5974 27
5973 1901
5973 285
5973 6
5972 1275
5972 1198
5972 870
5971 9414
5971 9090
5971 7584
5971 1888
5971 1619
5971 443
5970 3415
5970 2855
5970 2298
5969 2804
5969 2159
5969 961
5968 3372
5968 1584
5968 142
5967 8062
5967 1062
5967 944
5967 2
5966 9339
5966 5639
5966 1903
5966 125
5965 7070
5965 834
5965 260
5965 142
5964 406
5964 258
5964 201
5963 6664
5963 1197
5963 265
5963 29
5962 1736
5962 482
5962 27
5961 8241
5961 3276
5961 1089
5961 328
5960 8868
5960 8656
5960 1698
5960 339
5960 0
5959 2580
5959 950
5959 3
5958 6277
5958 210
5958 27
5958 19
5957 6987
5957 6281
5957 3538
5957 2212
5957 0
5956 4950
5956 69
5956 16
5955 1455
5955 1441
5955 1105
5954 4348
5954 4327
5954 3109
5953 9561
5953 5851
5953 3969
5953 555
5952 6638
5952 1502
5952 1205
5952 222
5951 7221
5951 6577
5951 959
5951 92
5951 6
5950 8417
5950 6885
5950 2634
5950 262
5950 147
5949 964
5949 723
5949 5
5948 4544
5948 2097
5948 748
5947 4846
5947 748
5947 360
5946 1840
5946 1558
5946 187
5945 4218
5945 1709
5945 662
5944 8012
5944 3270
5944 2320
5944 2077
5943 3711
5943 2188
5943 1879
5942 7023
5942 6051
5942 734
5942 456
5942 221
5941 7429
5941 6984
5941 4912
5941 1487
5941 783
5940 3066
5940 809
5940 179
5939 7787
5939 4605
5939 2359
5939 18
5938 6339
5938 4641
5938 2564
5938 0
5937 5641
5937 982
5937 661
5936 9333
5936 9167
5936 5636
5936 1113
5936 390
5935 9882
5935 6048
5935 3261
5935 1417
5935 55
5934 6281
5934 2533
5934 879
5934 294
5933 5877
5933 1728
5933 96
5932 4851
5932 1021
5932 307
5931 5430
5931 4078
5931 1469
5930 6745
5930 3339
5930 2838
5930 600
5929 6688
5929 2389
5929 460
5929 322
5928 7424
5928 3944
5928 3663
5928 2954
5927 5600
5927 4638
5927 109
5926 2682
5926 2054
5926 30
5925 6754
5925 1449
5925 174
5925 75
5924 4820
5924 3749
5924 419
5923 599
5923 539
5923 50
5922 8836
5922 7320
5922 4758
5922 127
5922 59
5921 1651
5921 471
5921 260
5920 3543
5920 292
5920 52
5919 8748
5919 3301
5919 9
5919 6
5918 2352
5918 2015
5918 467
5917 7698
5917 5912
5917 5332
5917 38
5916 2336
5916 445
5916 439
5915 542
5915 359
5915 187
5914 2379
5914 43
5914 8
5913 4883
5913 126
5913 74
5912 8806
5912 5917
5912 4757
5912 2025
5912 804
5911 8878
5911 7381
5911 5095
5911 3257
5911 1035
5910 2424
5910 1382
5910 16
5909 7006
5909 5532
5909 4048
5909 2161
5908 6897
5908 4835
5908 3129
5908 2745
5907 9108
5907 8815
5907 6920
5907 2715
5907 1390
5907 1299
5906 6225
5906 3798
5906 2992
5906 809
5905 7940
5905 3910
5905 3100
5905 1593
5904 3599
5904 1576
5904 490
5903 7769
5903 7509
5903 3862
5903 1206
5903 194
5902 3911
5902 698
5902 285
5901 1992
5901 950
5901 513
5900 9336
5900 9039
5900 8984
5900 5633
5900 3893
5900 2758
5899 5104
5899 984
5899 158
5898 7679
5898 6677
5898 4672
5898 3863
5898 304
5897 4226
5897 2515
5897 196
5896 7210
5896 2786
5896 661
5896 334
5895 3057
5895 1162
5895 913
5894 9247
5894 7926
5894 6560
5894 5280
5894 3793
5894 1198
5893 9960
5893 3723
5893 2087
5893 157
5892 8735
5892 1472
5892 1446
5892 717
5891 9002
5891 8524
5891 5856
5891 3101
5891 861
5890 9294
5890 5190
5890 748
5890 55
5889 7962
5889 7934
5889 3005
5889 626
5889 41
5888 9230
5888 7173
5888 2833
5888 2214
5888 948
5887 8546
5887 5081
5887 92
5887 12
5886 1390
5886 556
5886 540
5885 8166
5885 8071
5885 7095
5885 6502
5885 3970
5885 795
5885 722
5884 3736
5884 1706
5884 1604
5883 9356
5883 7764
5883 3271
5883 1050
5883 932
5882 3139
5882 673
5882 479
5881 2731
5881 2031
5881 1140
5880 9452
5880 7365
5880 5580
5880 3697
5880 3139
5879 289
5879 219
5879 5
5878 9119
5878 6239
5878 1216
5878 1151
5878 556
5877 7396
5877 5933
5877 2382
5877 351
5877 152
5876 6906
5876 3438
5876 1081
5876 197
5875 8605
5875 3199
5875 102
5875 3
5874 5063
5874 2939
5874 393
5873 3123
5873 1199
5873 114
5872 4726
5872 3724
5872 99
5871 7048
5871 5287
5871 2346
5871 1671
5870 7920
5870 7118
5870 1752
5870 560
5870 2
5869 4913
5869 120
5869 98
5868 6261
5868 2405
5868 375
5868 201
5867 7662
5867 7651
5867 7111
5867 6151
5867 4846
5867 3373
5867 632
5866 240
5866 153
5866 1
5865 8648
5865 7687
5865 7266
5865 1160
5865 471
5865 72
5864 9684
5864 8598
5864 8088
5864 6535
5864 333
5864 83
5864 69
5863 8975
5863 6375
5863 5586
5863 1169
5863 457
5862 8170
5862 7856
5862 645
5862 493
5862 122
5861 5417
5861 2995
5861 2642
5860 3376
5860 686
5860 439
5859 472
5859 450
5859 78
5858 4088
5858 1113
5858 33
5857 1229
5857 243
5857 57
5856 8214
5856 5891
5856 5551
5856 4776
5856 166
5855 8560
5855 5078
5855 3022
5855 360
5854 3315
5854 2716
5854 963
5853 4134
5853 3665
5853 1710
5852 2784
5852 462
5852 16
5851 8651
5851 5953
5851 5694
5851 3084
5851 593
5850 6716
5850 428
5850 45
5850 32
5849 4501
5849 725
5849 27
5848 8424
5848 2238
5848 984
5848 52
5847 8009
5847 7795
5847 7592
5847 6272
5847 6050
5847 1625
5847 774
5847 227
5846 7039
5846 3105
5846 2381
5846 1016
5845 1342
5845 1325
5845 246
5844 2493
5844 1678
5844 1433
5843 5824
5843 4517
5843 4495
5842 9207
5842 2776
5842 951
5842 932
5841 2094
5841 924
5841 419
5840 2835
5840 578
5840 207
5839 2405
5839 937
5839 511
5838 9252
5838 7016
5838 4536
5838 2727
5838 19
5837 3830
5837 575
5837 80
5836 8066
5836 5207
5836 3189
5836 486
5835 9633
5835 9500
5835 6175
5835 5460
5835 1933
5835 1782
5834 4776
5834 3371
5834 2441
5833 8209
5833 7410
5833 3464
5833 3182
5833 995
5832 9729
5832 9583
5832 2166
5832 735
5832 691
5831 5085
5831 1689
5831 577
5830 3978
5830 3455
5830 2164
5829 9642
5829 7359
5829 5741
5829 3248
5829 3206
5828 3148
5828 2352
5828 176
5827 9400
5827 6296
5827 4404
5827 490
5827 0
5826 1942
5826 1720
5826 337
5825 8281
5825 7614
5825 1946
5825 1845
5825 1594
5824 9681
5824 5843
5824 5671
5824 4201
5824 448
5823 4988
5823 2690
5823 6
5822 6655
5822 6052
5822 2074
5822 1847
5822 712
5821 1654
5821 27
5821 2
5820 2106
5820 1942
5820 24
5819 8499
5819 3537
5819 1053
5819 59
5818 9032
5818 7218
5818 3248
5818 3233
5818 2011
5817 2421
5817 1852
5817 1842
5816 9065
5816 8422
5816 6438
5816 5042
5816 2224
5816 142
5815 7872
5815 4692
5815 4069
5815 189
5814 2054
5814 1064
5814 776
5813 8972
5813 8751
5813 7236
5813 6254
5813 4140
5813 2359
5813 392
5812 1654
5812 1576
5812 529
5811 4439
5811 3513
5811 1230
5810 3358
5810 2609
5810 2322
5809 5646
5809 4971
5809 4398
5808 5381
5808 4013
5808 142
5807 8116
5807 8082
5807 5213
5807 4649
5807 57
5806 4521
5806 366
5806 104
5805 9857
5805 9779
5805 7940
5805 2114
5805 1538
5805 127
5804 4336
5804 3888
5804 1195
5803 8307
5803 7792
5803 4596
5803 3893
5803 1216
5802 4165
5802 1928
5802 91
5801 9299
5801 5549
5801 5009
5801 3920
5800 5656
5800 780
5800 643
5799 8985
5799 6341
5799 1970
5799 420
5799 0
5798 7952
5798 2664
5798 984
5798 117
5797 6940
5797 6183
5797 4588
5797 1285
5797 243
5796 7052
5796 5409
5796 4650
5796 41
5795 9302
5795 7183
5795 6923
5795 3424
5795 2214
5795 1531
5794 9903
5794 9215
5794 1160
5794 605
5794 15
5793 3731
5793 2238
5793 654
5792 1331
5792 510
5792 153
5791 7885
5791 1689
5791 1472
5791 231
5790 9274
5790 7961
5790 7664
5790 4920
5790 3552
5790 1319
5789 6133
5789 2941
5789 2613
5789 1241
5788 6186
5788 1918
5788 1690
5788 493
5787 2581
5787 1520
5787 6
5786 9290
5786 7069
5786 3594
5786 2237
5786 7
5785 3227
5785 3171
5785 600
5784 1851
5784 1738
5784 27
5783 5544
5783 5015
5783 518
5782 2309
5782 1966
5782 573
5781 5467
5781 4802
5781 4395
5780 5254
5780 1221
5780 955
5779 9645
5779 3008
5779 2749
5779 2462
5778 8346
5778 6877
5778 876
5778 697
5778 519
5777 7510
5777 6133
5777 4327
5777 1028
5777 4
5776 2767
5776 1847
5776 1373
5775 8496
5775 8377
5775 7643
5775 2946
5775 1658
5775 939
5774 2814
5774 1090
5774 302
5773 2841
5773 1849
5773 307
5772 8008
5772 1575
5772 783
5772 142
5771 3860
5771 3834
5771 203
5770 917
5770 657
5770 72
5769 4963
5769 3460
5769 3180
5768 6071
5768 5627
5768 5000
5768 137
5767 3032
5767 174
5767 4
5766 1216
5766 612
5766 23
5765 7100
5765 3315
5765 2671
5765 1843
5764 5508
5764 1195
5764 128
5763 7598
5763 5300
5763 1981
5763 1714
5762 6018
5762 5364
5762 3487
5762 79
5761 9624
5761 7377
5761 6465
5761 6394
5761 2352
5761 178
5761 94
5760 6564
5760 2186
5760 2084
5760 1393
5759 9591
5759 8220
5759 2963
5759 1136
5759 255
5758 6652
5758 2043
5758 662
5758 241
5757 2593
5757 1359
5757 225
5756 5737
5756 5367
5756 391
5755 3973
5755 599
5755 503
5754 1087
5754 775
5754 498
5753 5666
5753 5258
5753 454
5752 6505
5752 2671
5752 184
5752 88
5751 4027
5751 2433
5751 828
5750 6324
5750 3794
5750 2126
5750 804
5749 2914
5749 2548
5749 958
5748 1283
5748 392
5748 158
5747 2968
5747 1472
5747 124
5746 9185
5746 4835
5746 1126
5746 207
5745 506
5745 176
5745 9
5744 8251
5744 4021
5744 166
5744 52
5743 1081
5743 826
5743 4
5742 9760
5742 7304
5742 6342
5742 5714
5742 3275
5742 1960
5741 6517
5741 6343
5741 5829
5741 1283
5741 1236
5741 643
5740 7014
5740 6965
5740 6829
5740 3150
5740 2925
5740 7
5739 7909
5739 7281
5739 6624
5739 3805
5739 1423
5739 482
5738 1263
5738 537
5738 28
5737 9310
5737 6123
5737 5756
5737 1985
5737 578
5737 55
5736 4023
5736 1355
5736 142
5735 7022
5735 1114
5735 722
5735 406
5734 9064
5734 8145
5734 8137
5734 3829
5734 1766
5734 9
5733 4820
5733 3389
5733 3077
5732 3147
5732 196
5732 33
5731 8718
5731 3137
5731 1245
5731 49
5730 7699
5730 2679
5730 2036
5730 1296
5729 7191
5729 5652
5729 2791
5729 1578
5728 2842
5728 583
5728 10
5727 5518
5727 3485
5727 309
5726 4446
5726 1029
5726 337
5725 9745
5725 8272
5725 5351
5725 496
5725 71
5724 7400
5724 1724
5724 767
5724 72
5723 6296
5723 5552
5723 3138
5723 995
5722 7411
5722 4111
5722 3247
5722 2137
5721 2038
5721 1899
5721 100
5720 8406
5720 6433
5720 3129
5720 1107
5720 200
5719 9709
5719 4086
5719 1022
5719 29
5718 8550
5718 520
5718 483
5718 69
5717 5698
5717 3111
5717 513
5716 6724
5716 940
5716 23
5716 19
5715 7080
5715 5675
5715 1359
5715 665
5714 5742
5714 2689
5714 2394
5714 218
5713 9077
5713 8504
5713 4230
5713 1535
5713 184
5712 6762
5712 3068
5712 1829
5712 127
5711 1408
5711 1161
5711 437
5710 8182
5710 6999
5710 5537
5710 1029
5710 9
5709 7115
5709 3730
5709 1026
5709 5
5708 9871
5708 8534
5708 8053
5708 7639
5708 2177
5708 415
5708 24
5707 5362
5707 1454
5707 451
5706 6138
5706 4511
5706 3580
5706 1636
5705 7174
5705 1409
5705 1395
5705 880
5704 181
5704 76
5704 1
5703 6243
5703 4864
5703 3081
5703 14
5702 4987
5702 3890
5702 3129
5701 3389
5701 622
5701 172
5700 9732
5700 9413
5700 5038
5700 171
5700 0
5699 7636
5699 4535
5699 3374
5699 1476
5698 6068
5698 5717
5698 3306
5698 2786
5698 222
5697 7802
5697 7689
5697 4857
5697 2269
5697 667
5696 5571
5696 3840
5696 3460
5695 9961
5695 6736
5695 3395
5695 988
5695 693
5694 9946
5694 9721
5694 5851
5694 5133
5694 3704
5694 1141
5693 3119
5693 2943
5693 1733
5692 7601
5692 7503
5692 3633
5692 2015
5692 1068
5691 3741
5691 153
5691 23
5690 4650
5690 1934
5690 870
5689 7612
5689 6445
5689 6163
5689 124
5689 27
5689 7
5688 8799
5688 2911
5688 779
5688 74
5687 3530
5687 2942
5687 930
5686 6661
5686 2365
5686 337
5686 120
5685 3016
5685 18
5685 4
5684 5033
5684 4368
5684 119
5683 6466
5683 3589
5683 2245
5683 1019
5682 8772
5682 8468
5682 8111
5682 7878
5682 6794
5682 5531
5682 176
5682 1
5681 7937
5681 7114
5681 2700
5681 2473
5681 967
5680 6513
5680 4441
5680 1526
5680 383
5679 9142
5679 1711
5679 1180
5679 611
5678 6386
5678 3161
5678 3084
5678 57
5677 8942
5677 8318
5677 7392
5677 2332
5677 840
5677 656
5676 1990
5676 1877
5676 818
5675 5715
5675 495
5675 83
5675 12
5674 4316
5674 1583
5674 1103
5673 9355
5673 621
5673 75
5673 11
5672 9298
5672 2591
5672 1667
5672 742
5671 9587
5671 7319
5671 5824
5671 3544
5671 1052
5671 265
5670 9074
5670 3910
5670 767
5670 204
5669 2700
5669 913
5669 414
5668 6593
5668 5321
5668 2945
5668 1633
5667 9354
5667 3390
5667 757
5667 723
5666 5753
5666 5128
5666 3663
5666 187
5665 325
5665 322
5665 9
5664 9119
5664 7227
5664 4733
5664 1635
5664 786
5663 9169
5663 8196
5663 3532
5663 2534
5663 1595
5662 3648
5662 3578
5662 1787
5661 3938
5661 427
5661 240
5660 8531
5660 7892
5660 7798
5660 7360
5660 7139
5660 6307
5660 3837
5660 28
5660 17
5659 6388
5659 1918
5659 1083
5659 746
5658 927
5658 439
5658 14
5657 9103
5657 2601
5657 365
5657 90
5656 7751
5656 5987
5656 5800
5656 3741
5656 1221
5656 64
5655 7586
5655 6614
5655 6412
5655 1148
5655 611
5655 113
5654 7681
5654 4029
5654 1424
5654 547
5653 8282
5653 3241
5653 591
5653 99
5652 8400
5652 6828
5652 5729
5652 1933
5652 357
5652 16
5651 6396
5651 5496
5651 1660
5651 76
5650 4235
5650 2680
5650 224
5649 9375
5649 9039
5649 8821
5649 6832
5649 3293
5649 1390
5649 1026
5648 9801
5648 7314
5648 6677
5648 2522
5648 1741
5648 439
5647 5060
5647 4287
5647 1736
5646 9966
5646 5983
5646 5809
5646 4172
5646 709
5646 460
5645 4967
5645 4808
5645 909
5644 2784
5644 176
5644 164
5643 9724
5643 2458
5643 279
5643 193
5642 2575
5642 2166
5642 714
5641 5937
5641 4544
5641 2192
5641 1060
5640 7403
5640 1568
5640 1146
5640 100
5639 5966
5639 3600
5639 2668
5639 26
5638 3521
5638 3512
5638 0
5637 2428
5637 1970
5637 166
5636 9864
5636 9364
5636 5936
5636 1749
5636 793
5636 725
5635 8374
5635 604
5635 335
5635 300
5634 9914
5634 4070
5634 1941
5634 751
5633 7364
5633 5900
5633 1354
5633 791
5633 63
5632 2718
5632 65
5632 9
5631 1631
5631 867
5631 815
5630 634
5630 156
5630 6
5629 3816
5629 935
5629 17
5628 7248
5628 3242
5628 502
5628 456
5627 5768
5627 1341
5627 179
5627 169
5626 1783
5626 819
5626 37
5625 8315
5625 5240
5625 4551
5625 1164
5624 6938
5624 4551
5624 1801
5624 98
5623 7004
5623 4721
5623 3764
5623 2570
5622 9738
5622 9660
5622 7878
5622 1816
5622 174
5622 17
5621 3935
5621 3059
5621 13
5620 8526
5620 7753
5620 5360
5620 4093
5620 22
5619 7110
5619 4808
5619 1001
5619 420
5618 9822
5618 7945
5618 4870
5618 3462
5618 1387
5617 9531
5617 3530
5617 3365
5617 1275
5616 7732
5616 3502
5616 1578
5616 956
5615 3299
5615 3096
5615 37
5614 9782
5614 9763
5614 8532
5614 8505
5614 7690
5614 1381
5614 1025
5614 620
5613 3555
5613 1189
5613 0
5612 6051
5612 74
5612 34
5612 5
5611 9923
5611 2105
5611 613
5611 455
5610 3252
5610 375
5610 138
5609 8030
5609 4225
5609 3677
5609 1107
5608 5197
5608 2094
5608 669
5607 7278
5607 3087
5607 626
5607 5
5606 8639
5606 6029
5606 3883
5606 3682
5606 482
5605 2526
5605 1499
5605 79
5604 493
5604 262
5604 80
5603 2969
5603 1753
5603 630
5602 8104
5602 2941
5602 265
5602 98
5601 288
5601 93
5601 0
5600 5927
5600 1300
5600 421
5600 140
5599 3047
5599 1615
5599 1335
5598 707
5598 410
5598 343
5597 6550
5597 3242
5597 1531
5597 17
5596 8612
5596 8207
5596 8091
5596 2322
5596 659
5596 568
5595 3911
5595 1738
5595 46
5594 1450
5594 1409
5594 246
5593 6865
5593 3533
5593 2074
5593 2042
5592 9181
5592 9145
5592 8833
5592 6115
5592 5095
5592 3283
5592 1936
5591 8238
5591 6198
5591 5188
5591 2916
5591 74
5590 1131
5590 147
5590 26
5589 9523
5589 8169
5589 7046
5589 1787
5589 1436
5589 2
5588 9827
5588 5505
5588 4299
5588 81
5587 677
5587 534
5587 255
5586 5863
5586 4114
5586 3925
5586 0
5585 7629
5585 4150
5585 3132
5585 2593
5584 3538
5584 3404
5584 255
5583 3698
5583 2260
5583 89
5582 8708
5582 8687
5582 8240
5582 6419
5582 3164
5582 1043
5582 366
5581 7228
5581 3279
5581 3248
5581 2819
5580 5880
5580 4965
5580 1822
5580 123
5579 1223
5579 755
5579 178
5578 2441
5578 1413
5578 677
5577 7688
5577 6074
5577 1774
5577 1522
5577 859
5576 6827
5576 6451
5576 2731
5576 2584
5576 1412
5575 9870
5575 8974
5575 3310
5575 591
5575 30
5574 7305
5574 1883
5574 455
5574 279
5573 5110
5573 5041
5573 3799
5572 2565
5572 2419
5572 2007
5571 6443
5571 5696
5571 5156
5571 608
5571 4
5570 7682
5570 4938
5570 2956
5570 820
5569 9514
5569 8846
5569 4746
5569 1197
5569 14
5568 5101
5568 2889
5568 309
5567 6247
5567 2088
5567 1049
5567 17
5566 3589
5566 958
5566 753
5565 9941
5565 1950
5565 1122
5565 1003
5564 7820
5564 2388
5564 645
5564 436
5563 7272
5563 5323
5563 3334
5563 89
5562 7790
5562 4854
5562 3723
5562 2964
5561 4504
5561 2021
5561 1763
5560 7372
5560 3434
5560 2851
5560 1432
5559 9604
5559 9528
5559 2133
5559 290
5559 18
5558 1414
5558 199
5558 3
5557 4700
5557 2651
5557 1728
5556 3512
5556 2431
5556 733
5555 9991
5555 7540
5555 493
5555 135
5555 37
5554 9529
5554 4941
5554 4486
5554 3563
5553 2276
5553 1737
5553 1531
5552 9978
5552 9945
5552 9890
5552 7555
5552 6586
5552 5723
5552 4875
5552 1894
5552 232
5551 5856
5551 4957
5551 885
5551 55
5550 9512
5550 9122
5550 6192
5550 3059
5550 683
5550 531
5549 5801
5549 3717
5549 3298
5549 2512
5548 9737
5548 3449
5548 199
5548 11
5547 9008
5547 8545
5547 1634
5547 895
5547 0
5546 2829
5546 1023
5546 613
5545 7584
5545 6341
5545 2863
5545 140
5545 9
5544 7881
5544 5783
5544 996
5544 19
5544 12
5543 7287
5543 7121
5543 2279
5543 1195
5543 768
5542 2017
5542 1001
5542 18
5541 1057
5541 407
5541 332
5540 8831
5540 6347
5540 551
5540 502
5540 360
5539 6749
5539 6009
5539 4511
5539 1081
5539 72
5538 2293
5538 1359
5538 26
5537 8342
5537 5710
5537 4427
5537 2664
5537 2135
5536 3431
5536 3159
5536 358
5535 2878
5535 2575
5535 9
5534 2010
5534 464
5534 5
5533 7559
5533 6100
5533 2903
5533 693
5533 138
5532 5909
5532 4942
5532 2475
5532 233
5531 8429
5531 5682
5531 704
5531 387
5531 50
5530 8478
5530 6250
5530 2313
5530 685
5530 551
5529 9672
5529 6258
5529 5220
5529 4121
5529 662
5528 1131
5528 759
5528 7
5527 9224
5527 6718
5527 3388
5527 2509
5527 1258
5526 5016
5526 4860
5526 418
5525 3022
5525 1561
5525 416
5524 1032
5524 197
5524 0
5523 8054
5523 7737
5523 2579
5523 1433
5523 917
5522 1994
5522 1932
5522 38
5521 3942
5521 3348
5521 67
5520 7769
5520 4772
5520 1893
5520 1578
5519 2135
5519 1271
5519 160
5518 9807
5518 8109
5518 6939
5518 5727
5518 4890
5518 1176
5518 16
5517 531
5517 174
5517 160
5516 4643
5516 3616
5516 170
5515 4364
5515 2213
5515 195
5514 3036
5514 1341
5514 1266
5513 3129
5513 499
5513 16
5512 5379
5512 5167
5512 4776
5511 3405
5511 2274
5511 100
5510 272
5510 79
5510 3
5509 2556
5509 2448
5509 240
5508 8517
5508 7694
5508 5764
5508 2708
5508 661
5508 39
5507 2908
5507 2189
5507 679
5506 799
5506 565
5506 46
5505 8834
5505 8575
5505 8132
5505 5588
5505 5266
5505 1338
5505 1055
5504 5350
5504 627
5504 0
5503 8751
5503 4120
5503 3818
5503 26
5502 3229
5502 251
5502 1
5501 8112
5501 3982
5501 24
5501 19
5500 9732
5500 4915
5500 2843
5500 9
5499 9411
5499 8219
5499 7710
5499 5355
5499 416
5499 37
5498 8787
5498 8352
5498 8211
5498 6221
5498 5307
5498 3127
5498 545
5497 3213
5497 1345
5497 324
5496 6447
5496 5651
5496 2935
5496 430
5496 291
5495 5043
5495 2178
5495 851
5494 8878
5494 8555
5494 3624
5494 244
5494 7
5493 4254
5493 2618
5493 1947
5492 7211
5492 1819
5492 1087
5492 518
5491 4633
5491 2758
5491 1734
5490 414
5490 188
5490 169
5489 8524
5489 3619
5489 1326
5489 7
5488 8744
5488 6294
5488 3078
5488 1287
5488 43
5487 7015
5487 4250
5487 3610
5487 779
5486 3966
5486 1312
5486 45
5485 8883
5485 7312
5485 4133
5485 3942
5485 215
5484 135
5484 100
5484 61
5483 7613
5483 1148
5483 511
5483 416
5482 7299
5482 4980
5482 3454
5482 193
5481 2843
5481 988
5481 127
5480 4434
5480 4147
5480 3
5479 6457
5479 2454
5479 1590
5479 1287
5478 4553
5478 857
5478 295
5477 6856
5477 3081
5477 1103
5477 199
5476 9242
5476 1117
5476 7
5476 0
5475 9701
5475 3973
5475 3493
5475 1207
5474 9201
5474 4192
5474 3879
5474 1366
5473 3579
5473 998
5473 963
5472 9448
5472 9028
5472 4757
5472 288
5472 80
5471 3740
5471 3272
5471 12
5470 9668
5470 2293
5470 2237
5470 648
5469 1605
5469 338
5469 35
5468 6792
5468 2386
5468 2146
5468 0
5467 5990
5467 5781
5467 3007
5467 646
5467 386
5466 4097
5466 3646
5466 655
5465 6801
5465 1978
5465 448
5465 1
5464 8184
5464 4248
5464 4232
5464 3016
5463 9099
5463 3934
5463 2087
5463 201
5462 4823
5462 2150
5462 628
5461 2470
5461 1626
5461 387
5460 5835
5460 150
5460 5
5460 0
5459 5243
5459 2015
5459 870
5458 5405
5458 3213
5458 126
5457 6558
5457 3427
5457 3280
5457 513
5456 6471
5456 1520
5456 1436
5456 1243
5455 2871
5455 2392
5455 77
5454 5279
5454 3205
5454 2876
5453 4251
5453 2975
5453 1045
5452 713
5452 345
5452 27
5451 9453
5451 3835
5451 3643
5451 131
5450 3973
5450 1405
5450 193
5449 3011
5449 2341
5449 1894
5448 5131
5448 2667
5448 1155
5447 5133
5447 1105
5447 2
5446 9314
5446 6194
5446 4210
5446 3876
5446 77
5445 4667
5445 2421
5445 2074
5444 8520
5444 565
5444 277
5444 9
5443 6114
5443 514
5443 398
5443 137
5442 3459
5442 1593
5442 535
5441 2812
5441 1179
5441 3
5440 8122
5440 1350
5440 156
5440 2
5439 9663
5439 8738
5439 8085
5439 1615
5439 1004
5439 18
5438 8577
5438 4266
5438 2984
5438 153
5437 9482
5437 6037
5437 416
5437 200
5437 18
5436 3984
5436 2676
5436 496
5435 8363
5435 3840
5435 3206
5435 92
5434 4134
5434 3378
5434 1889
5433 4253
5433 1961
5433 1576
5432 7915
5432 7668
5432 3705
5432 3185
5432 1691
5431 2510
5431 882
5431 437
5430 9784
5430 5931
5430 1730
5430 932
5430 146
5429 9567
5429 1816
5429 1260
5429 19
5428 7914
5428 2866
5428 412
5428 0
5427 8545
5427 8365
5427 5231
5427 2229
5427 31
5426 8800
5426 4398
5426 733
5426 368
5425 7328
5425 2729
5425 173
5425 25
5424 3927
5424 317
5424 37
5423 8716
5423 4163
5423 1507
5423 433
5422 484
5422 449
5422 120
5421 8602
5421 402
5421 380
5421 35
5420 8204
5420 8027
5420 7655
5420 7581
5420 2085
5420 154
5420 49
5419 7336
5419 1768
5419 1249
5419 0
5418 2729
5418 2003
5418 1980
5417 5861
5417 5155
5417 3183
5417 358
5416 7596
5416 4130
5416 1013
5416 557
5415 8474
5415 5295
5415 1232
5415 708
5414 4253
5414 3674
5414 13
5413 9445
5413 8232
5413 7108
5413 6544
5413 2150
5413 1076
5413 499
5412 6897
5412 2413
5412 903
5412 286
5411 4875
5411 2851
5411 370
5410 8323
5410 7195
5410 5333
5410 2216
5410 757
5409 9848
5409 9764
5409 6480
5409 5796
5409 3571
5409 1142
5409 1076
5408 5154
5408 1020
5408 462
5407 9769
5407 3905
5407 506
5407 28
5406 9431
5406 8936
5406 8466
5406 7848
5406 6989
5406 4312
5406 4050
5406 3099
5405 5458
5405 2768
5405 740
5405 534
5404 3483
5404 529
5404 180
5403 3385
5403 1986
5403 1450
5402 8963
5402 8055
5402 4162
5402 3613
5402 873
5401 2223
5401 2186
5401 2049
5400 2260
5400 1663
5400 156
5399 4761
5399 2127
5399 7
5398 8739
5398 6176
5398 5276
5398 3100
5398 1188
5397 375
5397 113
5397 37
5396 6000
5396 4133
5396 405
5396 80
5395 4443
5395 4355
5395 351
5394 4981
5394 3992
5394 198
5393 1652
5393 1243
5393 7
5392 8842
5392 3185
5392 1523
5392 262
5391 1127
5391 651
5391 632
5390 3820
5390 453
5390 39
5389 9150
5389 3049
5389 916
5389 204
5388 3537
5388 3106
5388 109
5387 4427
5387 2097
5387 39
5386 8993
5386 4965
5386 241
5386 30
5385 8428
5385 7451
5385 3362
5385 3155
5385 2579
5384 9371
5384 7043
5384 796
5384 9
5384 5
5383 9113
5383 6541
5383 2565
5383 2178
5383 71
5382 4951
5382 929
5382 360
5381 5808
5381 4946
5381 2059
5381 608
5380 5075
5380 1082
5380 247
5379 7484
5379 5512
5379 1444
5379 274
5379 4
5378 7061
5378 4767
5378 2742
5378 565
5377 7856
5377 7021
5377 5321
5377 1067
5377 319
5376 3238
5376 1022
5376 2
5375 713
5375 386
5375 345
5374 9882
5374 3882
5374 638
5374 72
5373 6973
5373 2109
5373 272
5373 5
5372 7527
5372 3810
5372 3039
5372 187
5371 9031
5371 8954
5371 3295
5371 3221
5371 2968
5370 9802
5370 4729
5370 3572
5370 93
5369 3673
5369 1942
5369 11
5368 6286
5368 4785
5368 4059
5368 3211
5367 6543
5367 5756
5367 695
5367 664
5367 301
5366 3405
5366 783
5366 125
5365 6555
5365 6336
5365 2390
5365 465
5365 280
5364 5762
5364 3503
5364 2084
5364 698
5363 2137
5363 1805
5363 1340
5362 7829
5362 6628
5362 5707
5362 2547
5362 2065
5362 39
5361 8635
5361 6739
5361 6716
5361 4120
5361 953
5361 58
5360 9153
5360 5620
5360 4163
5360 3864
5360 122
5359 8356
5359 6578
5359 6175
5359 3928
5359 935
5359 360
5358 4656
5358 835
5358 3
5357 3266
5357 2044
5357 222
5356 5313
5356 3277
5356 1219
5355 5499
5355 3319
5355 1300
5355 3
5354 2101
5354 931
5354 67
5353 7007
5353 6389
5353 267
5353 151
5353 143
5352 6751
5352 3777
5352 7
5352 3
5351 6910
5351 6340
5351 5725
5351 4584
5351 2682
5351 953
5350 5504
5350 716
5350 244
5350 20
5349 7816
5349 4977
5349 2330
5349 2063
5348 6229
5348 2836
5348 1559
5348 1131
5347 9746
5347 9268
5347 8336
5347 7672
5347 5089
5347 4383
5347 710
5346 850
5346 499
5346 129
5345 6621
5345 3105
5345 1755
5345 1400
5344 310
5344 258
5344 12
5343 7356
5343 3817
5343 1517
5343 346
5342 5120
5342 1049
5342 809
5341 6838
5341 5258
5341 3650
5341 2260
5340 3844
5340 3701
5340 3674
5339 6842
5339 3701
5339 2482
5339 369
5338 7378
5338 7308
5338 1270
5338 796
5338 17
5337 9284
5337 120
5337 113
5337 3
5336 4056
5336 1838
5336 728
5335 4986
5335 4272
5335 3794
5334 920
5334 397
5334 39
5333 8486
5333 5410
5333 3627
5333 670
5333 224
5332 5917
5332 5224
5332 3763
5332 2938
5331 7007
5331 6590
5331 4052
5331 467
5331 79
5330 1552
5330 1438
5330 20
5329 4213
5329 3929
5329 2382
5328 1438
5328 158
5328 0
5327 775
5327 644
5327 211
5326 2652
5326 1777
5326 127
5325 7354
5325 3123
5325 1382
5325 633
5324 1562
5324 36
5324 8
5323 5563
5323 4807
5323 4450
5323 578
5322 8317
5322 1466
5322 357
5322 52
5321 7012
5321 5668
5321 5377
5321 5287
5321 3736
5321 151
5320 9342
5320 8790
5320 5114
5320 616
5320 426
5319 4759
5319 1737
5319 729
5318 9845
5318 7138
5318 2718
5318 711
5318 689
5317 9734
5317 8013
5317 3937
5317 2242
5317 1750
5316 4261
5316 1826
5316 1768
5315 7502
5315 678
5315 48
5315 17
5314 8853
5314 8478
5314 7818
5314 7260
5314 6406
5314 6009
5314 1542
5314 1116
5314 14
5313 8382
5313 6472
5313 5356
5313 4843
5313 2828
5313 285
5312 7164
5312 696
5312 542
5312 93
5311 8226
5311 7404
5311 7008
5311 6308
5311 3736
5311 312
5311 188
5310 9566
5310 6675
5310 6165
5310 4937
5310 865
5310 7
5309 1791
5309 418
5309 246
5308 1022
5308 883
5308 487
5307 9213
5307 6339
5307 5498
5307 3608
5307 387
5307 147
5306 6587
5306 1879
5306 752
5306 445
5305 7024
5305 4769
5305 376
5305 6
5304 8661
5304 836
5304 192
5304 45
5303 6272
5303 4279
5303 1775
5303 1560
5302 5225
5302 2437
5302 1165
5301 6693
5301 3144
5301 2681
5301 1738
5300 8004
5300 5763
5300 3331
5300 3211
5300 1254
5299 7893
5299 4290
5299 1851
5299 995
5298 6368
5298 5112
5298 2672
5298 19
5297 9708
5297 3258
5297 2670
5297 917
5296 8520
5296 5189
5296 263
5296 178
5295 8255
5295 7438
5295 5415
5295 4340
5295 3132
5295 1725
5294 6794
5294 4200
5294 332
5294 33
5293 7496
5293 6385
5293 3595
5293 2496
5293 460
5292 8476
5292 4821
5292 3124
5292 1011
5291 4645
5291 2326
5291 2119
5290 6337
5290 6029
5290 2392
5290 2359
5290 1364
5289 1754
5289 430
5289 177
5288 8135
5288 5007
5288 3691
5288 3610
5287 8215
5287 5871
5287 5321
5287 4478
5287 2577
5287 419
5286 6528
5286 6154
5286 3791
5286 90
5286 58
5285 1245
5285 1057
5285 280
5284 8944
5284 2525
5284 2343
5284 421
5283 8378
5283 6349
5283 848
5283 351
5283 65
5282 8143
5282 3147
5282 1150
5282 4
5281 8223
5281 2704
5281 1691
5281 280
5280 8130
5280 6820
5280 6405
5280 6265
5280 5982
5280 5894
5280 402
5280 380
5280 1
5279 9276
5279 7818
5279 7583
5279 6802
5279 6458
5279 6270
5279 5454
5279 2431
5279 1320
5279 179
5278 6059
5278 5015
5278 2382
5278 1268
5277 8077
5277 7144
5277 6536
5277 244
5277 218
5277 29
5276 5398
5276 4085
5276 2809
5276 51
5275 1578
5275 1329
5275 1068
5274 7031
5274 2916
5274 2633
5274 1634
5273 8464
5273 6212
5273 2809
5273 2134
5273 602
5272 4001
5272 1449
5272 673
5271 9462
5271 5015
5271 755
5271 110
5270 4837
5270 1611
5270 431
5269 8213
5269 1449
5269 57
5269 29
5268 8442
5268 4302
5268 4172
5268 1696
5267 9854
5267 3954
5267 3794
5267 633
5266 5505
5266 1888
5266 1037
5266 255
5265 7288
5265 4200
5265 4103
5265 193
5264 8051
5264 2201
5264 844
5264 32
5263 8979
5263 8774
5263 2631
5263 2617
5263 23
5262 3040
5262 804
5262 13
5261 3154
5261 2189
5261 293
5260 4186
5260 3500
5260 0
5259 2225
5259 1670
5259 232
5258 8165
5258 6780
5258 5753
5258 5341
5258 3675
5258 2405
5258 2250
5257 6640
5257 2113
5257 1970
5257 1588
5256 7316
5256 4039
5256 2974
5256 1380
5255 3927
5255 434
5255 33
5254 9216
5254 7895
5254 5780
5254 1690
5254 914
5254 502
5253 7091
5253 1125
5253 255
5253 102
5252 8659
5252 7466
5252 4835
5252 1472
5252 678
5251 3795
5251 1305
5251 112
5250 4847
5250 178
5250 92
5249 6403
5249 3766
5249 1314
5249 7
5248 3059
5248 1652
5248 6
5247 9301
5247 8164
5247 2862
5247 594
5247 33
5246 8994
5246 1523
5246 68
5246 23
5245 2795
5245 2497
5245 949
5244 9091
5244 3132
5244 169
5244 12
5243 5459
5243 3897
5243 2415
5243 607
5242 3014
5242 584
5242 404
5241 2114
5241 673
5241 117
5240 5625
5240 5238
5240 2356
5240 2145
5239 2333
5239 834
5239 91
5238 6965
5238 5240
5238 2843
5238 845
5238 741
5237 9294
5237 8171
5237 7617
5237 1733
5237 337
5237 190
5236 1650
5236 108
5236 67
5235 9352
5235 824
5235 748
5235 566
5234 3862
5234 1974
5234 794
5233 1083
5233 478
5233 45
5232 1692
5232 520
5232 0
5231 5427
5231 3919
5231 2855
5231 23
5230 4687
5230 3653
5230 613
5229 4714
5229 526
5229 27
5228 8410
5228 1879
5228 884
5228 571
5227 9504
5227 4896
5227 4564
5227 4181
5226 9803
5226 7287
5226 6907
5226 6784
5226 4207
5226 52
5226 19
5225 8180
5225 7500
5225 6188
5225 5302
5225 2286
5225 1616
5225 198
5224 9312
5224 7247
5224 6706
5224 5332
5224 4975
5224 3731
5224 748
5223 7922
5223 6393
5223 1105
5223 135
5223 10
5222 9354
5222 9165
5222 4742
5222 520
5222 55
5221 4727
5221 2873
5221 7
5220 8844
5220 5529
5220 3096
5220 156
5220 5
5219 9469
5219 1851
5219 1397
5219 1032
5218 7412
5218 6510
5218 5193
5218 1398
5218 473
5217 2359
5217 1688
5217 1049
5216 6217
5216 3312
5216 2356
5216 212
5215 4725
5215 3327
5215 2395
5214 3736
5214 2250
5214 64
5213 7202
5213 5807
5213 4523
5213 3258
5213 280
5212 7838
5212 3534
5212 2216
5212 30
5211 9423
5211 9378
5211 9135
5211 4749
5211 908
5211 77
5210 5075
5210 2175
5210 23
5209 1333
5209 600
5209 300
5208 1556
5208 132
5208 22
5207 7344
5207 5836
5207 4555
5207 2576
5207 844
5206 2137
5206 1098
5206 6
5205 3238
5205 2429
5205 89
5204 5109
5204 249
5204 65
5203 3521
5203 741
5203 600
5202 9145
5202 8911
5202 2541
5202 2410
5202 301
5201 2493
5201 2418
5201 482
5200 2527
5200 1634
5200 390
5199 1849
5199 1352
5199 755
5198 6788
5198 944
5198 97
5198 20
5197 7897
5197 7775
5197 5608
5197 3414
5197 969
5197 117
5196 1093
5196 832
5196 59
5195 7695
5195 2482
5195 2228
5195 337
5194 9982
5194 2688
5194 1328
5194 18
5193 8471
5193 7296
5193 6552
5193 5218
5193 2576
5193 541
5193 210
5192 2855
5192 712
5192 4
5191 9315
5191 6314
5191 6147
5191 2013
5191 1100
5191 77
5190 5890
5190 225
5190 99
5190 7
5189 5296
5189 3148
5189 77
5189 15
5188 9773
5188 8082
5188 7086
5188 6476
5188 5591
5188 941
5188 370
5188 188
5187 1687
5187 1119
5187 46
5186 9150
5186 2830
5186 184
5186 50
5185 6427
5185 2600
5185 1176
5185 228
5184 8955
5184 4726
5184 3842
5184 791
5183 4799
5183 2483
5183 572
5182 7371
5182 4441
5182 949
5182 311
5181 1367
5181 1306
5181 182
5180 685
5180 48
5180 2
5179 7733
5179 7169
5179 2887
5179 2296
5179 141
5178 2887
5178 2477
5178 125
5177 4977
5177 1945
5177 270
5176 1214
5176 113
5176 52
5175 2186
5175 95
5175 28
5174 1029
5174 151
5174 90
5173 3820
5173 2394
5173 1301
5172 3801
5172 3214
5172 2224
5171 6739
5171 3925
5171 1651
5171 917
5170 8964
5170 7908
5170 6256
5170 3809
5170 502
5170 304
5169 8756
5169 4039
5169 3259
5169 3041
5168 6922
5168 6079
5168 4836
5168 3339
5168 2353
5167 5512
5167 4832
5167 583
5167 15
5166 4851
5166 2843
5166 2001
5165 4835
5165 4106
5165 2562
5164 4969
5164 4690
5164 2102
5163 2061
5163 738
5163 713
5162 6101
5162 4718
5162 2755
5162 791
5161 6146
5161 1942
5161 1416
5161 920
5160 2341
5160 2280
5160 203
5159 1836
5159 612
5159 132
5158 8093
5158 6642
5158 5080
5158 472
5158 324
5157 4113
5157 1033
5157 293
5156 7226
5156 6633
5156 5571
5156 2140
5156 809
5156 177
5155 9171
5155 6571
5155 6141
5155 5417
5155 1889
5155 326
5155 122
5154 5408
5154 2325
5154 1186
5154 294
5153 6111
5153 860
5153 33
5153 7
5152 8668
5152 6297
5152 2956
5152 1801
5152 922
5151 8995
5151 324
5151 247
5151 58
5150 3906
5150 2105
5150 262
5149 7876
5149 6591
5149 4348
5149 3517
5149 2621
5148 7724
5148 1374
5148 385
5148 155
5147 1571
5147 1081
5147 4
5146 2001
5146 1735
5146 17
5145 8335
5145 8270
5145 3672
5145 1680
5145 678
5144 8970
5144 7717
5144 4760
5144 799
5144 366
5143 3326
5143 45
5143 38
5142 2604
5142 302
5142 1
5141 1682
5141 723
5141 43
5140 5974
5140 1756
5140 967
5140 434
5139 3690
5139 1667
5139 19
5138 4116
5138 2456
5138 23
5137 4303
5137 3349
5137 93
5136 8859
5136 6907
5136 3007
5136 1460
5136 182
5135 1672
5135 1574
5135 1349
5134 1622
5134 915
5134 91
5133 9352
5133 8769
5133 5694
5133 5447
5133 3761
5133 3635
5133 66
5132 6174
5132 5032
5132 2088
5132 988
5131 9742
5131 8461
5131 5448
5131 4673
5131 2383
5131 41
5130 9838
5130 4054
5130 295
5130 47
5129 3749
5129 221
5129 19
5128 9313
5128 5666
5128 146
5128 95
5128 41
5127 6004
5127 3543
5127 2744
5127 1981
5126 642
5126 575
5126 248
5125 8571
5125 7299
5125 4882
5125 2751
5125 90
5124 7788
5124 7271
5124 3718
5124 1038
5124 92
5123 8951
5123 6884
5123 2001
5123 1368
5123 439
5122 4780
5122 139
5122 12
5121 7273
5121 4255
5121 2784
5121 380
5120 5342
5120 4816
5120 3966
5120 2765
5119 1562
5119 946
5119 482
5118 8324
5118 942
5118 200
5118 40
5117 1679
5117 1271
5117 176
5116 4377
5116 2879
5116 455
5115 7788
5115 3312
5115 1172
5115 852
5114 6988
5114 6440
5114 5320
5114 3077
5114 2938
5114 485
5113 7763
5113 6584
5113 509
5113 445
5113 264
5112 5298
5112 4520
5112 393
5112 137
5111 4860
5111 297
5111 15
5110 5573
5110 1716
5110 404
5110 10
5109 5204
5109 4920
5109 1727
5109 614
5108 8984
5108 8408
5108 6105
5108 3381
5108 758
5108 9
5107 8286
5107 4158
5107 417
5107 277
5106 1382
5106 917
5106 0
5105 6837
5105 1326
5105 705
5105 534
5104 7199
5104 6383
5104 5899
5104 2279
5104 626
5104 293
5103 8198
5103 7971
5103 6906
5103 3016
5103 1719
5103 38
5102 9758
5102 9528
5102 7583
5102 2963
5102 2449
5102 2331
5101 9659
5101 5568
5101 1167
5101 1119
5101 9
5100 8292
5100 4584
5100 82
5100 50
5099 7515
5099 7079
5099 4813
5099 1650
5099 161
5098 7426
5098 6293
5098 4648
5098 2260
5098 234
5097 6973
5097 2528
5097 747
5097 416
5096 4247
5096 2187
5096 0
5095 5911
5095 5592
5095 817
5095 100
5095 93
5094 8448
5094 7009
5094 6545
5094 1125
5094 332
5094 184
5093 2303
5093 518
5093 97
5092 6810
5092 4667
5092 4107
5092 612
5091 9460
5091 4476
5091 2293
5091 33
5090 8419
5090 4915
5090 1881
5090 589
5089 5347
5089 3118
5089 951
5089 389
5088 4179
5088 683
5088 25
5087 1918
5087 1026
5087 134
5086 9506
5086 9134
5086 1707
5086 1081
5086 262
5085 9019
5085 8385
5085 5831
5085 3282
5085 2032
5085 1671
5084 5056
5084 3897
5084 76
5083 2980
5083 2960
5083 912
5082 9944
5082 8647
5082 4653
5082 2952
5082 1972
5081 9978
5081 8450
5081 5887
5081 3374
5081 225
5081 39
5080 9948
5080 5158
5080 3170
5080 2279
5080 42
5079 4275
5079 3300
5079 215
5078 6196
5078 5855
5078 4840
5078 2254
5078 60
5077 3668
5077 1995
5077 889
5076 3030
5076 1970
5076 813
5075 7695
5075 6250
5075 5380
5075 5210
5075 4450
5075 1842
5075 69
5074 6056
5074 3560
5074 1883
5074 1428
5073 8957
5073 6526
5073 3754
5073 555
5073 90
5072 2137
5072 225
5072 4
5071 3339
5071 691
5071 389
5070 4610
5070 296
5070 4
5069 9949
5069 2601
5069 2232
5069 11
5068 1506
5068 998
5068 222
5067 4314
5067 2094
5067 803
5066 9324
5066 6434
5066 2418
5066 711
5066 48
5065 6223
5065 661
5065 644
5065 43
5064 940
5064 540
5064 4
5063 7462
5063 5874
5063 3888
5063 414
5063 77
5062 8859
5062 2976
5062 1032
5062 207
5061 9812
5061 6360
5061 3137
5061 1177
5061 1053
5060 7906
5060 5647
5060 5039
5060 1443
5060 1068
5059 8966
5059 8601
5059 8369
5059 2582
5059 644
5059 126
5058 4361
5058 3135
5058 2968
5057 9415
5057 2974
5057 1430
5057 376
5056 6107
5056 5084
5056 3855
5056 104
5056 45
5055 8736
5055 806
5055 527
5055 464
5054 9322
5054 6187
5054 896
5054 718
5054 62
5053 2499
5053 2193
5053 471
5052 8415
5052 8339
5052 7565
5052 7004
5052 3740
5052 1360
5052 619
5051 8725
5051 1658
5051 1631
5051 552
5050 7716
5050 3179
5050 1117
5050 55
5049 8375
5049 2140
5049 2003
5049 341
5048 8041
5048 4601
5048 2213
5048 752
5047 1083
5047 890
5047 430
5046 8916
5046 2671
5046 256
5046 85
5045 141
5045 83
5045 19
5044 6150
5044 3634
5044 3057
5044 72
5043 7090
5043 5495
5043 4561
5043 18
5043 15
5042 6823
5042 5816
5042 1409
5042 1046
5042 102
5041 8143
5041 5573
5041 3943
5041 461
5041 415
5040 9459
5040 505
5040 300
5040 249
5039 5060
5039 3999
5039 12
5039 8
5038 9999
5038 7506
5038 5700
5038 241
5038 181
5038 3
5037 9551
5037 4328
5037 3624
5037 336
5036 3851
5036 3614
5036 3476
5035 3702
5035 2939
5035 165
5034 8896
5034 8714
5034 4359
5034 2303
5034 1079
5033 8508
5033 6140
5033 5684
5033 2015
5033 242
5033 111
5032 5132
5032 1782
5032 673
5032 179
5031 4168
5031 3873
5031 2284
5030 8088
5030 7439
5030 2860
5030 198
5030 38
5029 6992
5029 2237
5029 1294
5029 1257
5028 9494
5028 1198
5028 631
5028 90
5027 9121
5027 2962
5027 255
5027 52
5026 6401
5026 3442
5026 859
5026 391
5025 8725
5025 1494
5025 755
5025 481
5024 1279
5024 629
5024 497
5023 6197
5023 1995
5023 1787
5023 13
5022 8110
5022 4785
5022 615
5022 400
5021 8787
5021 4434
5021 3642
5021 246
5020 7016
5020 1892
5020 335
5020 225
5019 9321
5019 3327
5019 2344
5019 274
5018 1647
5018 53
5018 43
5017 717
5017 262
5017 1
5016 8246
5016 5526
5016 4133
5016 1650
5016 831
5015 5783
5015 5278
5015 5271
5015 4347
5015 720
5015 566
5014 779
5014 354
5014 161
5013 9596
5013 7848
5013 4089
5013 79
5013 35
5012 6858
5012 2564
5012 1129
5012 77
5011 7607
5011 6329
5011 6030
5011 3304
5011 1449
5011 385
5010 1768
5010 7
5010 4
5009 5801
5009 1623
5009 513
5009 49
5008 2587
5008 140
5008 16
5007 8166
5007 7851
5007 5288
5007 2941
5007 538
5007 20
5006 3100
5006 2971
5006 337
5005 6071
5005 1183
5005 245
5005 105
5004 4126
5004 582
5004 557
5003 6779
5003 3166
5003 248
5003 7
5002 2921
5002 2361
5002 2015
5001 9177
5001 6781
5001 3455
5001 3210
5001 0
5000 8593
5000 5768
5000 3117
5000 2753
5000 377
4999 9535
4999 6354
4999 3986
4999 1192
4999 10
4998 1878
4998 1679
4998 838
4997 9837
4997 6768
4997 3057
4997 1503
4997 1087
4996 2406
4996 1597
4996 1127
4995 7188
4995 3658
4995 1324
4995 297
4994 7031
4994 1950
4994 1299
4994 7
4993 9992
4993 6714
4993 1015
4993 312
4993 77
4992 4778
4992 2194
4992 841
4991 8775
4991 4036
4991 3743
4991 572
4990 8427
4990 6728
4990 2123
4990 150
4990 35
4989 1594
4989 7
4989 6
4988 6804
4988 5823
4988 2535
4988 2322
4988 643
4987 5702
4987 2664
4987 304
4987 6
4986 9442
4986 8074
4986 7204
4986 5335
4986 4659
4986 1712
4986 380
4985 1970
4985 1691
4985 14
4984 4368
4984 649
4984 176
4983 6458
4983 2826
4983 520
4983 34
4982 8223
4982 4928
4982 2153
4982 1347
4981 8431
4981 5394
4981 1395
4981 941
4981 201
4980 8674
4980 5482
4980 2938
4980 1195
4980 577
4979 6418
4979 3097
4979 964
4979 156
4978 3324
4978 3045
4978 1623
4977 6523
4977 5349
4977 5177
4977 4040
4977 3269
4977 3099
4976 2354
4976 845
4976 816
4975 8720
4975 7193
4975 6009
4975 5224
4975 4912
4975 2545
4975 413
4974 7710
4974 6946
4974 3704
4974 1506
4974 794
4973 3923
4973 3340
4973 178
4972 7188
4972 7104
4972 1584
4972 828
4972 19
4971 8683
4971 7503
4971 6647
4971 5809
4971 4556
4971 2767
4971 1090
4970 2631
4970 544
4970 380
4969 8049
4969 6245
4969 6086
4969 5164
4969 4345
4969 2143
4969 1603
4968 3897
4968 1478
4968 231
4967 9249
4967 7517
4967 7000
4967 5645
4967 1220
4967 1046
4967 470
4966 2854
4966 1146
4966 642
4965 9744
4965 6652
4965 5580
4965 5386
4965 1180
4965 901
4965 648
4964 7750
4964 4391
4964 1831
4964 216
4963 7947
4963 5769
4963 3204
4963 2741
4963 1671
4962 3688
4962 3048
4962 2316
4961 3581
4961 959
4961 781
4960 6882
4960 1388
4960 1382
4960 1046
4959 4148
4959 1774
4959 984
4958 825
4958 653
4958 2
4957 6811
4957 6806
4957 5551
4957 849
4957 749
4957 705
4956 7054
4956 6338
4956 1874
4956 1089
4956 468
4955 2153
4955 296
4955 43
4954 9421
4954 7772
4954 6466
4954 3842
4954 2964
4954 358
4953 8172
4953 6538
4953 4415
4953 1051
4953 3
4952 1365
4952 1147
4952 809
4951 5382
4951 1145
4951 529
4951 188
4950 9836
4950 9516
4950 9240
4950 7616
4950 5956
4950 2015
4950 768
4950 290
4949 8163
4949 6365
4949 1841
4949 937
4949 230
4948 9180
4948 8373
4948 7277
4948 6121
4948 4112
4948 2107
4948 1906
4947 8171
4947 3082
4947 1796
4947 53
4946 5381
4946 3746
4946 3600
4946 909
4945 8139
4945 1102
4945 985
4945 854
4944 3514
4944 37
4944 1
4943 4283
4943 3530
4943 3
4942 5532
4942 3938
4942 3058
4942 841
4941 5554
4941 3857
4941 1919
4941 16
4940 9858
4940 6523
4940 4676
4940 370
4940 63
4939 4487
4939 3128
4939 91
4938 7792
4938 6776
4938 5570
4938 2483
4938 1983
4938 1
4937 5310
4937 951
4937 858
4937 390
4936 6739
4936 3007
4936 183
4936 4
4935 9232
4935 1592
4935 1472
4935 4
4934 3943
4934 3520
4934 2263
4933 2063
4933 1235
4933 550
4932 9820
4932 2038
4932 644
4932 83
4931 8161
4931 3248
4931 1639
4931 808
4930 1798
4930 934
4930 931
4929 6426
4929 4732
4929 3609
4929 982
4928 4982
4928 1400
4928 1210
4928 767
4927 9704
4927 4568
4927 1647
4927 72
4926 2974
4926 2133
4926 18
4925 4047
4925 3260
4925 3247
4924 9444
4924 8983
4924 8799
4924 8625
4924 3464
4924 46
4924 28
4923 6365
4923 2762
4923 1687
4923 1050
4922 4346
4922 1107
4922 239
4921 8362
4921 3085
4921 502
4921 2
4920 5790
4920 5109
4920 2476
4920 479
4920 44
4919 3713
4919 1819
4919 1555
4918 4207
4918 3119
4918 1647
4917 1831
4917 317
4917 3
4916 9673
4916 8630
4916 6148
4916 733
4916 347
4916 9
4915 9094
4915 5500
4915 5090
4915 4127
4915 38
4915 7
4914 4517
4914 1071
4914 38
4913 5869
4913 3925
4913 1812
4913 781
4912 5941
4912 4975
4912 2037
4912 1219
4912 52
4911 2783
4911 899
4911 871
4910 6148
4910 4044
4910 4016
4910 26
4909 3928
4909 3261
4909 540
4908 3034
4908 401
4908 60
4907 3381
4907 190
4907 169
4906 3572
4906 2903
4906 2487
4905 3768
4905 239
4905 28
4904 9632
4904 8463
4904 7371
4904 7252
4904 4656
4904 3573
4904 1658
4903 6824
4903 4020
4903 2336
4903 393
4902 6119
4902 2938
4902 1283
4902 52
4901 2001
4901 987
4901 661
4900 3758
4900 3546
4900 1856
4899 8565
4899 8038
4899 4707
4899 4310
4899 3399
4898 7549
4898 7356
4898 4054
4898 825
4898 279
4897 593
4897 253
4897 1
4896 6745
4896 5227
4896 1468
4896 688
4896 420
4895 3993
4895 587
4895 141
4894 3107
4894 1924
4894 119
4893 6275
4893 1301
4893 447
4893 255
4892 4803
4892 89
4892 20
4891 6403
4891 6246
4891 2927
4891 717
4891 48
4890 8657
4890 5518
4890 4630
4890 1347
4890 228
4889 7300
4889 1904
4889 1836
4889 1704
4888 3945
4888 708
4888 6
4887 9573
4887 2246
4887 2068
4887 1724
4886 8376
4886 4610
4886 2628
4886 1115
4885 8809
4885 3990
4885 374
4885 59
4884 7245
4884 1339
4884 1237
4884 249
4883 9294
4883 8876
4883 5913
4883 2074
4883 1375
4883 921
4882 9990
4882 9259
4882 5125
4882 3008
4882 1320
4882 518
4881 1050
4881 862
4881 288
4880 1697
4880 721
4880 26
4879 2712
4879 689
4879 326
4878 4457
4878 1361
4878 153
4877 2545
4877 324
4877 165
4876 2195
4876 1164
4876 568
4875 8563
4875 8556
4875 7575
4875 5552
4875 5411
4875 1338
4875 1222
4875 2
4874 9689
4874 2805
4874 616
4874 500
4873 9433
4873 2033
4873 563
4873 194
4872 9997
4872 4125
4872 683
4872 93
4871 6167
4871 4108
4871 213
4871 184
4870 9360
4870 6756
4870 5618
4870 1934
4870 300
4870 80
4869 8518
4869 8029
4869 6399
4869 2029
4869 1262
4869 76
4868 1418
4868 510
4868 508
4867 6248
4867 1955
4867 1022
4867 142
4866 8093
4866 2409
4866 2317
4866 378
4865 8780
4865 8396
4865 7741
4865 7586
4865 3530
4865 1595
4865 227
4864 7175
4864 5703
4864 3261
4864 307
4864 126
4863 8927
4863 7038
4863 6961
4863 6946
4863 6689
4863 3504
4863 1461
4863 0
4862 4047
4862 1733
4862 162
4861 8695
4861 4586
4861 2996
4861 2218
4860 5526
4860 5111
4860 2878
4860 2680
4860 2352
4859 2808
4859 2137
4859 917
4858 3460
4858 3171
4858 2413
4857 8648
4857 5697
4857 4394
4857 3844
4857 3492
4856 4705
4856 834
4856 100
4855 7737
4855 749
4855 278
4855 264
4854 5562
4854 4304
4854 4263
4854 3168
4853 6696
4853 6337
4853 1359
4853 1144
4853 68
4852 4629
4852 1275
4852 204
4851 5932
4851 5166
4851 3618
4851 110
4851 0
4850 2948
4850 2861
4850 30
4849 1515
4849 1401
4849 1035
4848 8084
4848 7271
4848 1339
4848 708
4848 321
4847 5250
4847 4575
4847 1775
4847 1390
4846 8585
4846 6495
4846 5947
4846 5867
4846 3614
4846 877
4846 0
4845 8825
4845 3546
4845 1755
4845 1147
4844 8812
4844 2507
4844 719
4844 265
4843 6807
4843 5313
4843 3673
4843 3057
4843 77
4842 1471
4842 1246
4842 1175
4841 9690
4841 7547
4841 3503
4841 3003
4841 1316
4840 8689
4840 8579
4840 5078
4840 4121
4840 2615
4840 59
4839 4130
4839 197
4839 153
4838 4351
4838 3085
4838 700
4837 7283
4837 5270
4837 708
4837 603
4837 22
4836 5168
4836 1087
4836 585
4836 444
4835 7999
4835 6462
4835 5908
4835 5746
4835 5252
4835 5165
4835 990
4835 691
4835 392
4834 9443
4834 3181
4834 2407
4834 1716
4833 7845
4833 4135
4833 2559
4833 309
4832 5167
4832 3223
4832 2756
4832 31
4831 3665
4831 3182
4831 1376
4830 7276
4830 1059
4830 719
4830 292
4829 3005
4829 2936
4829 787
4828 9288
4828 3243
4828 1351
4828 72
4827 3027
4827 816
4827 37
4826 9615
4826 9301
4826 1021
4826 645
4826 422
4825 9332
4825 9079
4825 6953
4825 853
4825 442
4825 44
4824 7446
4824 3969
4824 826
4824 417
4823 6135
4823 5462
4823 4275
4823 3314
4823 476
4822 7488
4822 2804
4822 667
4822 54
4821 8196
4821 5292
4821 3249
4821 2575
4821 1933
4820 5924
4820 5733
4820 4130
4820 2653
4820 1651
4819 2288
4819 1653
4819 424
4818 4609
4818 2843
4818 184
4817 6756
4817 4369
4817 2003
4817 47
4816 8413
4816 7605
4816 7463
4816 5120
4816 2662
4816 2646
4816 191
4815 6039
4815 1412
4815 521
4815 256
4814 4319
4814 1983
4814 250
4813 5099
4813 3608
4813 3248
4813 246
4812 6483
4812 4276
4812 1338
4812 207
4811 3494
4811 3229
4811 696
4810 2123
4810 1616
4810 28
4809 8974
4809 589
4809 169
4809 81
4808 5645
4808 5619
4808 1427
4808 784
4808 60
4807 9221
4807 7779
4807 5323
4807 2559
4807 708
4807 600
4806 2063
4806 1978
4806 196
4805 6127
4805 6024
4805 1115
4805 898
4805 664
4804 1883
4804 841
4804 522
4803 7482
4803 6823
4803 4892
4803 2355
4803 1114
4803 815
4802 6609
4802 5781
4802 2401
4802 1019
4802 512
4801 8958
4801 3862
4801 3155
4801 2596
4800 8965
4800 7634
4800 6471
4800 3712
4800 2544
4800 1374
4799 9404
4799 8459
4799 5183
4799 3887
4799 1056
4799 114
4798 2052
4798 415
4798 299
4797 7281
4797 7186
4797 2294
4797 1458
4797 140
4796 9056
4796 4133
4796 836
4796 725
4795 1326
4795 103
4795 2
4794 2054
4794 69
4794 41
4793 2997
4793 332
4793 110
4792 4584
4792 3019
4792 328
4791 4746
4791 4168
4791 1819
4790 4069
4790 1647
4790 619
4789 9559
4789 292
4789 179
4789 77
4788 6021
4788 2842
4788 2573
4788 446
4787 6591
4787 1476
4787 426
4787 34
4786 6722
4786 2454
4786 1461
4786 1311
4785 7863
4785 6787
4785 5368
4785 5022
4785 3132
4785 2578
4785 6
4784 719
4784 110
4784 51
4783 2374
4783 2334
4783 709
4782 3182
4782 2398
4782 975
4781 4410
4781 3129
4781 26
4780 8392
4780 5122
4780 2480
4780 246
4780 19
4779 9370
4779 3057
4779 2293
4779 108
4778 5996
4778 4992
4778 2871
4778 236
4778 48
4777 9175
4777 7730
4777 932
4777 472
4777 141
4776 8448
4776 5856
4776 5834
4776 5512
4776 444
4776 102
4776 1
4775 9736
4775 4179
4775 3830
4775 1683
4774 9651
4774 9444
4774 3982
4774 1654
4774 1380
4773 8154
4773 3473
4773 2198
4773 68
4772 6849
4772 5520
4772 3567
4772 3348
4772 1198
4771 3577
4771 583
4771 37
4770 8631
4770 8569
4770 6846
4770 3323
4770 2112
4770 188
4769 7440
4769 5305
4769 4073
4769 1072
4769 9
4768 8785
4768 1890
4768 948
4768 27
4767 5378
4767 2400
4767 1650
4767 1340
4766 9731
4766 2925
4766 723
4766 125
4765 6232
4765 3388
4765 922
4765 842
4764 9235
4764 3352
4764 915
4764 307
4763 8945
4763 8625
4763 8264
4763 1580
4763 1204
4763 935
4762 6394
4762 3031
4762 1874
4762 75
4761 7890
4761 5399
4761 4403
4761 386
4761 187
4760 5144
4760 2921
4760 1655
4760 1217
4759 8941
4759 5319
4759 4741
4759 3635
4759 44
4758 7386
4758 5922
4758 597
4758 362
4758 51
4757 8314
4757 7257
4757 6916
4757 5912
4757 5472
4757 2424
4757 2025
4757 486
4756 9354
4756 4197
4756 416
4756 278
4755 7477
4755 7274
4755 6340
4755 6174
4755 6067
4755 6027
4755 4254
4755 3360
4755 6
4754 8385
4754 4184
4754 120
4754 13
4753 9620
4753 1250
4753 128
4753 126
4752 6752
4752 3767
4752 845
4752 583
4751 8313
4751 3671
4751 2823
4751 863
4750 7423
4750 6675
4750 4685
4750 3935
4750 2941
4749 5211
4749 4703
4749 296
4749 3
4748 7077
4748 4593
4748 2353
4748 178
4747 4118
4747 1555
4747 110
4746 8275
4746 7721
4746 5569
4746 4791
4746 3224
4746 3060
4746 748
4745 3529
4745 587
4745 132
4744 1786
4744 1735
4744 102
4743 9534
4743 4414
4743 2724
4743 843
4742 6695
4742 5222
4742 2063
4742 39
4742 20
4741 9831
4741 7898
4741 7342
4741 6711
4741 4759
4741 645
4741 262
4741 6
4740 7923
4740 6855
4740 4370
4740 4087
4740 524
4739 9611
4739 3821
4739 416
4739 30
4738 7483
4738 7461
4738 6813
4738 3804
4738 246
4738 182
4737 9956
4737 2434
4737 2370
4737 1703
4736 8709
4736 7632
4736 3862
4736 196
4736 0
4735 3819
4735 2065
4735 1020
4734 9555
4734 2881
4734 1506
4734 45
4733 9194
4733 5664
4733 1128
4733 304
4733 69
4732 4929
4732 3505
4732 2097
4732 508
4731 9203
4731 8482
4731 8225
4731 6099
4731 3248
4731 2700
4731 14
4730 3145
4730 1930
4730 482
4729 5370
4729 3809
4729 2621
4729 1138
4728 4171
4728 2506
4728 2008
4727 9509
4727 8915
4727 5221
4727 510
4727 82
4727 40
4726 8303
4726 8038
4726 7744
4726 5872
4726 5184
4726 4016
4726 3476
4726 140
4725 5215
4725 3569
4725 1546
4725 225
4724 7636
4724 2930
4724 1019
4724 166
4723 4570
4723 1129
4723 260
4722 3180
4722 2426
4722 397
4721 7622
4721 5623
4721 4270
4721 953
4721 92
4720 9178
4720 8818
4720 6630
4720 4649
4720 3054
4720 1794
4719 9947
4719 534
4719 307
4719 112
4718 7480
4718 5162
4718 238
4718 57
4718 35
4717 7584
4717 6733
4717 2701
4717 799
4717 402
4716 8922
4716 6244
4716 6134
4716 4374
4716 2162
4716 751
4715 679
4715 244
4715 174
4714 5229
4714 3097
4714 138
4714 68
4713 9338
4713 9257
4713 3563
4713 1455
4713 401
4712 6016
4712 3713
4712 2447
4712 851
4711 6395
4711 3643
4711 537
4711 110
4710 9429
4710 8176
4710 7874
4710 7748
4710 6692
4710 6482
4710 1352
4710 1089
4710 153
4709 9988
4709 6509
4709 6323
4709 4336
4709 2940
4709 406
4708 4364
4708 1347
4708 963
4707 4899
4707 583
4707 156
4707 63
4706 2327
4706 1965
4706 201
4705 9838
4705 7654
4705 6315
4705 4856
4705 2087
4705 1400
4705 6
4704 6011
4704 4586
4704 3724
4704 1868
4703 7589
4703 6715
4703 4749
4703 1531
4703 929
4703 728
4702 8400
4702 6128
4702 2843
4702 1770
4702 572
4701 7944
4701 6953
4701 6304
4701 6110
4701 2238
4701 1025
4701 2
4700 5557
4700 3458
4700 3022
4700 59
4699 2978
4699 2666
4699 756
4698 8068
4698 7743
4698 3223
4698 2580
4698 999
4697 7140
4697 3515
4697 1741
4697 262
4696 7993
4696 7624
4696 2272
4696 1018
4696 153
4695 7260
4695 1954
4695 1512
4695 110
4694 2982
4694 2805
4694 2800
4693 3587
4693 338
4693 117
4692 8964
4692 6981
4692 6787
4692 5815
4692 1485
4692 1297
4692 46
4691 8288
4691 7299
4691 4224
4691 3872
4691 2561
4690 5164
4690 1125
4690 310
4690 6
4689 3507
4689 730
4689 372
4688 9478
4688 6989
4688 6821
4688 1999
4688 1647
4688 1436
4687 6468
4687 5230
4687 1270
4687 963
4687 201
4686 7801
4686 1244
4686 578
4686 266
4685 4750
4685 1655
4685 238
4685 78
4684 982
4684 14
4684 6
4683 1303
4683 207
4683 184
4682 6178
4682 2154
4682 2095
4682 496
4681 8060
4681 165
4681 12
4681 7
4680 7451
4680 6212
4680 1981
4680 23
4680 20
4679 7201
4679 2186
4679 256
4679 9
4678 1892
4678 1108
4678 737
4677 844
4677 292
4677 27
4676 9017
4676 4940
4676 694
4676 91
4676 9
4675 820
4675 661
4675 80
4674 8397
4674 7034
4674 3926
4674 2256
4674 176
4673 9532
4673 8064
4673 6776
4673 5131
4673 2843
4673 303
4673 125
4672 7286
4672 7232
4672 6105
4672 5898
4672 2364
4672 1056
4672 972
4671 2936
4671 1974
4671 1474
4670 8624
4670 3574
4670 1956
4670 1906
4669 666
4669 188
4669 46
4668 8857
4668 8103
4668 3810
4668 144
4668 7
4667 9612
4667 7534
4667 5445
4667 5092
4667 1686
4667 1602
4667 173
4666 9570
4666 3777
4666 3259
4666 4
4665 9903
4665 9474
4665 7619
4665 1135
4665 976
4665 572
4664 2807
4664 2189
4664 1036
4663 3050
4663 655
4663 102
4662 4234
4662 2894
4662 1485
4661 9520
4661 7622
4661 7108
4661 1335
4661 1331
4661 78
4660 8321
4660 3175
4660 1699
4660 77
4659 8412
4659 4986
4659 1167
4659 1163
4659 3
4658 9203
4658 6748
4658 3490
4658 1935
4658 52
4657 4395
4657 3097
4657 2
4656 5358
4656 4904
4656 2227
4656 1749
4656 676
4655 9403
4655 2534
4655 1764
4655 794
4654 9812
4654 9637
4654 9428
4654 6235
4654 4027
4654 3523
4654 2
4653 5082
4653 534
4653 10
4653 8
4652 8800
4652 7065
4652 4640
4652 1107
4652 779
4651 7062
4651 3791
4651 2809
4651 219
4650 9606
4650 5796
4650 5690
4650 2594
4650 1676
4650 1394
4649 9144
4649 8181
4649 5807
4649 4720
4649 1331
4649 1301
4649 228
4648 9430
4648 5098
4648 3393
4648 2772
4648 2546
4647 3139
4647 1971
4647 1591
4646 8758
4646 7782
4646 3179
4646 1775
4646 514
4645 5291
4645 509
4645 77
4645 33
4644 9496
4644 4118
4644 2279
4644 1059
4643 8055
4643 6181
4643 5516
4643 2784
4643 2118
4643 1392
4642 1264
4642 1057
4642 520
4641 8964
4641 5938
4641 648
4641 201
4641 97
4640 8803
4640 4652
4640 3204
4640 1190
4640 1086
4639 4410
4639 3381
4639 776
4638 5927
4638 3588
4638 2149
4638 260
4637 6026
4637 3647
4637 642
4637 503
4636 2857
4636 295
4636 222
4635 8769
4635 4416
4635 197
4635 46
4634 7147
4634 4193
4634 1566
4634 790
4633 9800
4633 8864
4633 5491
4633 4133
4633 2001
4633 1945
4632 3810
4632 3204
4632 2499
4631 7916
4631 1185
4631 208
4631 14
4630 9855
4630 7704
4630 7339
4630 6248
4630 4890
4630 796
4630 402
4630 218
4629 4852
4629 2541
4629 379
4629 122
4628 3905
4628 3082
4628 2379
4627 9277
4627 8897
4627 8884
4627 1887
4627 281
4627 7
4626 7319
4626 4382
4626 1218
4626 818
4625 8561
4625 1877
4625 885
4625 51
4624 7399
4624 626
4624 210
4624 65
4623 1417
4623 171
4623 138
4622 4246
4622 2575
4622 0
4621 9586
4621 6697
4621 4510
4621 2272
4621 1090
4620 6825
4620 6798
4620 2746
4620 1820
4620 990
4619 8121
4619 7757
4619 7439
4619 3386
4619 921
4619 920
4618 9266
4618 6357
4618 4607
4618 1472
4618 1419
4617 3497
4617 1710
4617 1452
4616 9984
4616 2804
4616 134
4616 102
4615 3114
4615 2731
4615 1586
4614 8515
4614 4562
4614 2426
4614 1083
4613 1103
4613 107
4613 10
4612 8675
4612 8346
4612 2884
4612 2515
4612 44
4611 8281
4611 1070
4611 608
4611 6
4610 7298
4610 5070
4610 4886
4610 3242
4610 2065
4610 3
4609 8510
4609 4818
4609 1763
4609 1011
4609 266
4608 7247
4608 6036
4608 1063
4608 122
4608 9
4607 9974
4607 8506
4607 6099
4607 4618
4607 1382
4607 912
4607 648
4606 8697
4606 2765
4606 19
4606 0
4605 9598
4605 5939
4605 3163
4605 2216
4605 263
4604 9083
4604 8230
4604 2192
4604 875
4604 809
4603 6484
4603 4278
4603 3976
4603 1238
4602 291
4602 265
4602 23
4601 9821
4601 7440
4601 7117
4601 6600
4601 5048
4601 3975
4601 1262
4601 639
4600 7819
4600 4510
4600 3800
4600 1892
4599 3217
4599 3158
4599 2258
4598 7793
4598 2274
4598 1843
4598 174
4597 4144
4597 3161
4597 13
4596 6112
4596 5803
4596 1658
4596 758
4596 510
4595 2190
4595 446
4595 140
4594 7297
4594 7172
4594 4536
4594 164
4594 145
4593 9635
4593 8159
4593 7509
4593 4748
4593 3017
4593 2858
4593 19
4592 8610
4592 2692
4592 1136
4592 911
4591 1053
4591 736
4591 27
4590 9248
4590 3057
4590 2532
4590 41
4589 1969
4589 813
4589 11
4588 5797
4588 2176
4588 866
4588 293
4587 644
4587 407
4587 2
4586 9285
4586 4861
4586 4704
4586 3346
4586 3233
4586 2760
4585 3100
4585 1356
4585 304
4584 9533
4584 8839
4584 8019
4584 7680
4584 5351
4584 5100
4584 4792
4584 2692
4584 150
4584 21
4583 7697
4583 7211
4583 6543
4583 3241
4583 1099
4583 176
4582 6971
4582 6185
4582 4189
4582 2218
4582 384
4581 8718
4581 3011
4581 1306
4581 678
4580 3740
4580 422
4580 74
4579 9781
4579 4088
4579 357
4579 33
4578 2188
4578 176
4578 4
4577 3148
4577 2925
4577 603
4576 3922
4576 3077
4576 295
4575 4847
4575 3457
4575 1996
4575 481
4574 8345
4574 7167
4574 3674
4574 1465
4574 887
4573 9131
4573 6373
4573 5984
4573 3729
4573 2569
4573 23
4572 3565
4572 641
4572 14
4571 6139
4571 3419
4571 2823
4571 520
4570 7637
4570 4723
4570 98
4570 10
4570 1
4569 9004
4569 6988
4569 3173
4569 2611
4569 280
4568 4927
4568 204
4568 137
4568 0
4567 2820
4567 537
4567 512
4566 7615
4566 3460
4566 2574
4566 1467
4565 1260
4565 303
4565 9
4564 6290
4564 5227
4564 2649
4564 1223
4564 202
4563 9262
4563 7638
4563 1028
4563 1000
4563 430
4562 9050
4562 6534
4562 4614
4562 4226
4562 3505
4562 135
4561 5043
4561 2218
4561 485
4561 388
4560 7417
4560 6392
4560 4274
4560 661
4560 174
4559 1125
4559 1122
4559 21
4558 4069
4558 381
4558 335
4557 3740
4557 3024
4557 10
4556 8304
4556 4971
4556 2539
4556 2084
4556 1827
4555 7735
4555 5207
4555 3658
4555 1281
4555 52
4554 9723
4554 7043
4554 530
4554 380
4554 78
4553 5478
4553 2091
4553 891
4553 391
4552 1541
4552 1454
4552 342
4551 9893
4551 9626
4551 7323
4551 6784
4551 6063
4551 5989
4551 5625
4551 5624
4551 2617
4551 767
4551 92
4550 6682
4550 1401
4550 559
4550 278
4549 6484
4549 560
4549 197
4549 11
4548 7547
4548 3925
4548 2056
4548 809
4547 2665
4547 94
4547 61
4546 3543
4546 5
4546 0
4545 6065
4545 2553
4545 1160
4545 77
4544 6839
4544 5948
4544 5641
4544 3176
4544 2459
4544 332
4543 6412
4543 3083
4543 198
4543 9
4542 8788
4542 8534
4542 1149
4542 72
4542 28
4541 7861
4541 2381
4541 2359
4541 1089
4540 9076
4540 2767
4540 1016
4540 405
4539 2633
4539 47
4539 23
4538 3823
4538 33
4538 10
4537 6120
4537 4207
4537 2972
4537 2018
4536 8768
4536 7040
4536 6122
4536 5838
4536 4594
4536 1966
4536 1203
4536 24
4535 7953
4535 7212
4535 6202
4535 5699
4535 904
4535 754
4535 0
4534 9973
4534 8597
4534 8176
4534 3605
4534 307
4534 72
4533 9218
4533 3653
4533 3340
4533 5
4532 6152
4532 2841
4532 748
4532 5
4531 3576
4531 1364
4531 1341
4530 8149
4530 6518
4530 2654
4530 315
4530 29
4529 8309
4529 1592
4529 1313
4529 26
4528 3806
4528 1636
4528 1202
4527 8857
4527 7020
4527 6785
4527 2688
4527 1930
4527 4
4526 3221
4526 256
4526 175
4525 3767
4525 1298
4525 30
4524 6874
4524 5977
4524 2456
4524 345
4524 0
4523 7324
4523 6909
4523 5213
4523 4439
4523 2975
4523 208
4522 9055
4522 8339
4522 122
4522 10
4522 5
4521 8329
4521 6159
4521 5806
4521 910
4521 183
4521 101
4520 5112
4520 4264
4520 3253
4520 1460
4519 4518
4519 3185
4519 77
4518 4519
4518 1801
4518 1198
4518 126
4517 6300
4517 5843
4517 4914
4517 4376
4517 883
4517 132
4516 2069
4516 1588
4516 621
4515 9722
4515 6828
4515 3914
4515 1521
4515 502
4514 8417
4514 2344
4514 1532
4514 5
4513 4051
4513 3360
4513 597
4512 7137
4512 2420
4512 224
4512 9
4511 5706
4511 5539
4511 2157
4511 1419
4511 75
4510 4621
4510 4600
4510 2042
4510 258
4510 255
4509 1972
4509 1947
4509 12
4508 1033
4508 538
4508 31
4507 7092
4507 6671
4507 6136
4507 2739
4507 1268
4507 671
4506 7927
4506 6648
4506 1546
4506 255
4506 16
4505 627
4505 160
4505 90
4504 5561
4504 3653
4504 1464
4504 57
4503 3017
4503 2074
4503 50
4502 4442
4502 3424
4502 2831
4501 5849
4501 897
4501 337
4501 9
4500 4074
4500 491
4500 81
4499 8445
4499 7830
4499 4189
4499 199
4499 196
4498 8594
4498 3624
4498 741
4498 20
4497 6396
4497 4177
4497 3159
4497 417
4496 8955
4496 7070
4496 1738
4496 845
4496 6
4495 9938
4495 7703
4495 5843
4495 2555
4495 2030
4495 815
4494 7693
4494 636
4494 446
4494 14
4493 5986
4493 2111
4493 445
4493 349
4492 8594
4492 7254
4492 4276
4492 3951
4492 1624
4491 380
4491 59
4491 52
4490 9755
4490 7866
4490 7596
4490 6103
4490 297
4490 7
4490 2
4489 9852
4489 8263
4489 7481
4489 4335
4489 1885
4489 49
4488 6001
4488 1699
4488 826
4488 143
4487 7765
4487 4939
4487 4291
4487 1059
4487 890
4486 5554
4486 2768
4486 1033
4486 2
4485 4200
4485 1203
4485 524
4484 7955
4484 3921
4484 3267
4484 2067
4483 8577
4483 6769
4483 6568
4483 1159
4483 889
4483 778
4482 8014
4482 6017
4482 754
4482 343
4482 7
4481 3051
4481 1887
4481 1484
4480 809
4480 89
4480 34
4479 3608
4479 161
4479 24
4478 8672
4478 6500
4478 5287
4478 738
4478 708
4478 227
4477 9372
4477 2098
4477 257
4477 212
4476 5091
4476 2965
4476 1009
4476 821
4475 4036
4475 3035
4475 332
4474 6748
4474 1615
4474 613
4474 588
4473 4441
4473 1172
4473 384
4472 1160
4472 680
4472 41
4471 4455
4471 3448
4471 745
4470 8561
4470 2968
4470 1343
4470 16
4469 8300
4469 6557
4469 1996
4469 951
4469 381
4468 9810
4468 8402
4468 7268
4468 4025
4468 2983
4468 1879
4467 9214
4467 7233
4467 6463
4467 6446
4467 1775
4467 416
4467 343
4466 6892
4466 3376
4466 1421
4466 390
4465 184
4465 177
4465 7
4464 8355
4464 7588
4464 6998
4464 2806
4464 2390
4464 408
4463 2834
4463 1459
4463 441
4462 7966
4462 3663
4462 2190
4462 220
4461 3276
4461 1839
4461 263
4460 8295
4460 8234
4460 4211
4460 3255
4460 1879
4459 9359
4459 7413
4459 2249
4459 1150
4459 135
4458 7280
4458 3193
4458 2296
4458 649
4457 4878
4457 3465
4457 1298
4457 206
4456 3067
4456 1169
4456 289
4455 9250
4455 4471
4455 3399
4455 2432
4455 890
4454 7492
4454 4302
4454 4117
4454 499
4453 3625
4453 859
4453 820
4452 9114
4452 7565
4452 2178
4452 12
4452 11
4451 2763
4451 2594
4451 705
4450 7936
4450 5323
4450 5075
4450 3005
4450 2910
4450 1331
4449 6746
4449 6126
4449 4379
4449 3256
4449 2573
4448 4134
4448 2017
4448 43
4447 7089
4447 3032
4447 1875
4447 1397
4446 8280
4446 8009
4446 5726
4446 3464
4446 1539
4446 98
4445 9841
4445 9484
4445 8332
4445 2174
4445 860
4445 118
4444 3429
4444 2432
4444 1564
4443 7243
4443 5395
4443 456
4443 446
4443 409
4442 8925
4442 8450
4442 4502
4442 3813
4442 3270
4442 105
4441 5680
4441 5182
4441 4473
4441 4232
4441 3468
4441 1
4440 4180
4440 3251
4440 2077
4439 9155
4439 5811
4439 4523
4439 2857
4439 2038
4439 247
4438 8405
4438 2646
4438 815
4438 472
4437 2202
4437 870
4437 4
4436 6150
4436 4127
4436 454
4436 320
4435 9455
4435 6712
4435 3073
4435 990
4435 340
4434 5480
4434 5021
4434 1465
4434 467
4434 117
4433 818
4433 239
4433 49
4432 8940
4432 3319
4432 3031
4432 2825
4431 7913
4431 7068
4431 6488
4431 3698
4431 1485
4431 5
4430 2368
4430 461
4430 408
4429 8794
4429 1273
4429 294
4429 7
4428 9894
4428 8479
4428 8156
4428 1720
4428 1062
4428 296
4427 6232
4427 5537
4427 5387
4427 3922
4427 565
4427 61
4426 3276
4426 1733
4426 52
4425 2884
4425 1311
4425 183
4424 8959
4424 8854
4424 8017
4424 3452
4424 1275
4424 416
4423 6420
4423 1945
4423 1756
4423 184
4422 3578
4422 2978
4422 47
4421 3992
4421 3983
4421 1645
4420 9969
4420 2476
4420 643
4420 4
4419 3894
4419 1699
4419 1306
4418 911
4418 870
4418 360
4417 4375
4417 4073
4417 2342
4416 4635
4416 3823
4416 2857
4416 1189
4415 4953
4415 3832
4415 1833
4415 242
4414 9568
4414 9531
4414 7739
4414 6992
4414 4743
4414 1670
4414 120
4414 12
4413 9253
4413 2896
4413 484
4413 5
4412 8522
4412 4052
4412 998
4412 309
4411 2379
4411 2288
4411 952
4410 7578
4410 7205
4410 4781
4410 4639
4410 1057
4410 674
4410 244
4409 6510
4409 2240
4409 263
4409 158
4408 3016
4408 1395
4408 1264
4407 8182
4407 2348
4407 1809
4407 604
4406 8894
4406 2435
4406 147
4406 5
4405 3710
4405 1107
4405 111
4404 5827
4404 3649
4404 2252
4404 265
4403 8086
4403 7738
4403 4761
4403 506
4403 422
4403 10
4402 9395
4402 7430
4402 2682
4402 2198
4402 65
4401 6442
4401 2779
4401 2497
4401 1655
4400 6089
4400 4186
4400 3560
4400 1791
4399 3716
4399 3400
4399 279
4398 7828
4398 5809
4398 5426
4398 3683
4398 917
4398 42
4397 8003
4397 1839
4397 372
4397 53
4396 2985
4396 51
4396 46
4395 5781
4395 4657
4395 995
4395 957
4395 62
4394 4857
4394 3729
4394 1286
4394 968
4393 3246
4393 294
4393 72
4392 650
4392 479
4392 128
4391 9364
4391 7676
4391 6000
4391 4964
4391 1900
4391 33
4391 11
4390 9730
4390 9210
4390 6903
4390 2613
4390 981
4390 120
4389 6294
4389 2980
4389 2666
4389 535
4388 3082
4388 2401
4388 127
4387 8794
4387 6437
4387 3713
4387 3671
4387 1697
4386 4252
4386 3448
4386 859
4385 1511
4385 893
4385 494
4384 1225
4384 391
4384 3
4383 8849
4383 5347
4383 2288
4383 1781
4383 20
4382 9859
4382 4626
4382 3809
4382 1649
4382 1615
4381 6013
4381 2187
4381 1650
4381 27
4380 7927
4380 3668
4380 3420
4380 950
4379 9806
4379 7262
4379 4449
4379 4225
4379 421
4379 76
4378 7824
4378 7715
4378 2442
4378 297
4378 16
4377 6771
4377 5116
4377 2258
4377 1222
4377 542
4376 4517
4376 4176
4376 2278
4376 698
4375 9315
4375 6248
4375 4417
4375 3659
4375 1301
4375 836
4374 8664
4374 4716
4374 2228
4374 485
4374 142
4373 3410
4373 2353
4373 2032
4372 3437
4372 435
4372 264
4371 6470
4371 1594
4371 493
4371 30
4370 4740
4370 3153
4370 2871
4370 1774
4369 9308
4369 8642
4369 6520
4369 4817
4369 1379
4369 114
4369 2
4368 5684
4368 4984
4368 271
4368 111
4368 10
4367 3968
4367 2612
4367 9
4366 2031
4366 1107
4366 72
4365 3923
4365 2296
4365 1294
4364 9744
4364 8928
4364 5976
4364 5515
4364 4708
4364 1478
4364 671
4364 92
4363 9765
4363 9648
4363 3749
4363 3543
4363 895
4362 4171
4362 503
4362 304
4361 5058
4361 3534
4361 337
4361 193
4360 6307
4360 3022
4360 2067
4360 1694
4359 6242
4359 5034
4359 4069
4359 2113
4359 150
4358 3905
4358 2207
4358 52
4357 9515
4357 6889
4357 3619
4357 3243
4357 1481
4356 5979
4356 4346
4356 2102
4356 387
4355 8755
4355 5395
4355 2689
4355 2613
4355 1262
4354 8649
4354 2579
4354 248
4354 2
4353 3767
4353 3200
4353 514
4352 8814
4352 8004
4352 7941
4352 7194
4352 3056
4352 1510
4352 953
4351 4838
4351 3916
4351 3282
4351 1568
4350 7400
4350 6304
4350 2220
4350 469
4350 156
4349 3242
4349 1019
4349 181
4348 9147
4348 5954
4348 5149
4348 3408
4348 1649
4348 1325
4347 5015
4347 2668
4347 1590
4347 1377
4346 7412
4346 4922
4346 4356
4346 1125
4346 126
4346 44
4345 8160
4345 8010
4345 5981
4345 4969
4345 3968
4345 76
4345 49
4344 8397
4344 7186
4344 1451
4344 1444
4344 619
4343 9953
4343 8037
4343 2157
4343 2104
4343 30
4342 1845
4342 157
4342 16
4341 8599
4341 2854
4341 809
4341 184
4340 5295
4340 840
4340 193
4340 17
4339 1970
4339 533
4339 30
4338 8015
4338 7112
4338 6037
4338 734
4338 700
4338 97
4337 3743
4337 3273
4337 2985
4336 8179
4336 7398
4336 7314
4336 6319
4336 5804
4336 4709
4336 3337
4336 3103
4336 2323
4335 4489
4335 3500
4335 2475
4335 1263
4334 6062
4334 5998
4334 912
4334 143
4334 23
4333 7147
4333 3420
4333 2930
4333 935
4332 1081
4332 704
4332 193
4331 4283
4331 689
4331 14
4330 6908
4330 3888
4330 3605
4330 23
4329 4275
4329 2229
4329 393
4328 9523
4328 9152
4328 8838
4328 7607
4328 7340
4328 5037
4328 3849
4328 1377
4328 41
4327 6964
4327 5954
4327 5777
4327 3671
4327 3182
4327 228
4326 4284
4326 422
4326 6
4325 6140
4325 2326
4325 395
4325 150
4324 117
4324 19
4324 0
4323 2937
4323 474
4323 310
4322 8549
4322 7487
4322 3873
4322 1858
4322 1572
4321 6285
4321 704
4321 458
4321 292
4320 3046
4320 2196
4320 96
4319 6885
4319 4814
4319 2409
4319 1257
4319 384
4318 7302
4318 1472
4318 474
4318 2
4317 1418
4317 1050
4317 20
4316 6225
4316 5674
4316 3978
4316 45
4316 23
4315 1406
4315 178
4315 162
4314 5067
4314 2569
4314 1356
4314 50
4313 995
4313 664
4313 426
4312 9547
4312 8746
4312 8410
4312 7217
4312 6401
4312 6398
4312 5406
4312 2843
4312 514
4312 376
4311 2751
4311 2434
4311 0
4310 8693
4310 4899
4310 4127
4310 2060
4310 529
4309 3532
4309 1481
4309 447
4308 3944
4308 3202
4308 985
4307 4281
4307 3081
4307 70
4306 9219
4306 2483
4306 1121
4306 8
4305 6696
4305 6295
4305 3860
4305 2699
4305 153
4304 4854
4304 3266
4304 128
4304 4
4303 6355
4303 5137
4303 3928
4303 3307
4303 2662
4302 6640
4302 5987
4302 5268
4302 4454
4302 4295
4302 3335
4302 615
4301 8305
4301 7731
4301 1822
4301 1023
4301 183
4300 8522
4300 4146
4300 698
4300 329
4299 6417
4299 5588
4299 475
4299 448
4299 412
4298 2326
4298 1846
4298 37
4297 7951
4297 3316
4297 929
4297 11
4296 3608
4296 639
4296 138
4295 7858
4295 4302
4295 2344
4295 216
4295 93
4294 8883
4294 4018
4294 3145
4294 1879
4293 7477
4293 3117
4293 2613
4293 391
4292 6266
4292 3874
4292 1043
4292 16
4291 4487
4291 2952
4291 100
4291 6
4290 8098
4290 5299
4290 1485
4290 922
4290 394
4289 3051
4289 104
4289 33
4288 9987
4288 2920
4288 616
4288 551
4287 9873
4287 7229
4287 7146
4287 5647
4287 987
4287 166
4287 8
4286 9775
4286 7559
4286 6824
4286 6678
4286 3323
4286 372
4286 6
4285 4205
4285 2881
4285 215
4284 4326
4284 2159
4284 1936
4284 497
4283 6615
4283 4943
4283 4331
4283 2922
4283 2546
4283 1450
4282 7272
4282 7073
4282 3067
4282 2974
4282 5
4281 7238
4281 4307
4281 3969
4281 1412
4281 156
4280 908
4280 52
4280 5
4279 6843
4279 5303
4279 3333
4279 2489
4279 1318
4278 4603
4278 3844
4278 247
4278 26
4277 6029
4277 3063
4277 1465
4277 9
4276 7507
4276 6969
4276 6193
4276 4812
4276 4492
4276 2683
4276 1842
4276 445
4275 6259
4275 5079
4275 4823
4275 4329
4275 1688
4275 45
4275 43
4274 4560
4274 2976
4274 1357
4274 0
4273 7462
4273 2978
4273 2320
4273 1305
4272 5335
4272 2634
4272 1213
4272 260
4271 9585
4271 3642
4271 1521
4271 781
4270 6457
4270 4721
4270 3311
4270 1217
4270 434
4269 6277
4269 2931
4269 2765
4269 1887
4268 7303
4268 2903
4268 1024
4268 696
4267 6477
4267 3921
4267 843
4267 655
4266 5438
4266 2946
4266 742
4266 81
4265 9961
4265 7326
4265 849
4265 699
4265 527
4264 9371
4264 8707
4264 8156
4264 4520
4264 3109
4264 2423
4264 697
4263 9203
4263 8159
4263 4854
4263 3990
4263 2051
4263 52
4262 4100
4262 3996
4262 2240
4261 9754
4261 7812
4261 7449
4261 5316
4261 866
4261 655
4261 258
4260 2299
4260 605
4260 0
4259 7796
4259 7278
4259 2273
4259 115
4259 5
4258 3959
4258 2875
4258 1924
4257 8401
4257 3240
4257 2336
4257 11
4256 9715
4256 7767
4256 3137
4256 2765
4256 203
4255 9112
4255 5121
4255 3624
4255 117
4255 26
4254 6887
4254 5493
4254 4755
4254 3969
4254 127
4254 38
4253 5433
4253 5414
4253 2023
4253 1827
4253 17
4252 9544
4252 9222
4252 7214
4252 4386
4252 193
4252 36
4252 3
4251 5453
4251 3147
4251 1045
4251 23
4250 8877
4250 5487
4250 2935
4250 1770
4250 1102
4249 3887
4249 781
4249 180
4248 8336
4248 5464
4248 1042
4248 147
4248 34
4247 7923
4247 7018
4247 5096
4247 3610
4247 3494
4247 1301
4246 8928
4246 4622
4246 3659
4246 2437
4246 506
4245 7832
4245 6031
4245 3190
4245 1602
4245 1250
4244 3222
4244 312
4244 46
4243 1528
4243 1030
4243 168
4242 6153
4242 2382
4242 1367
4242 857
4241 1994
4241 1450
4241 711
4240 6401
4240 1451
4240 51
4240 0
4239 9636
4239 3410
4239 2228
4239 1860
4238 9254
4238 6020
4238 2018
4238 186
4238 3
4237 1767
4237 577
4237 304
4236 3577
4236 578
4236 1
4235 8146
4235 5650
4235 4168
4235 2239
4235 512
4234 7539
4234 4662
4234 3618
4234 449
4234 102
4233 8947
4233 819
4233 648
4233 369
4232 7982
4232 7723
4232 5464
4232 4441
4232 2252
4232 988
4232 138
4231 9785
4231 4131
4231 921
4231 169
4230 9197
4230 6737
4230 5713
4230 2098
4230 1150
4230 871
4229 6567
4229 4070
4229 1147
4229 78
4228 8519
4228 6060
4228 4172
4228 2082
4228 1081
4227 2288
4227 1167
4227 588
4226 8875
4226 6925
4226 6336
4226 5897
4226 4562
4226 3604
4226 3207
4226 1784
4225 8929
4225 5609
4225 4379
4225 3688
4225 3189
4225 855
4224 9559
4224 8991
4224 6592
4224 4691
4224 583
4224 479
4224 368
4223 1056
4223 732
4223 226
4222 1524
4222 974
4222 9
4221 6701
4221 6592
4221 1073
4221 538
4221 33
4220 2992
4220 1128
4220 1064
4219 9260
4219 3990
4219 3922
4219 1650
4218 5945
4218 3354
4218 791
4218 74
4217 513
4217 454
4217 39
4216 8734
4216 3086
4216 2472
4216 875
4215 2352
4215 1984
4215 517
4214 9141
4214 3915
4214 3032
4214 1138
4213 7640
4213 6585
4213 5329
4213 722
4213 356
4213 45
4212 1035
4212 204
4212 55
4211 7746
4211 6189
4211 6122
4211 4460
4211 1191
4211 178
4211 176
4210 5446
4210 3531
4210 2716
4210 75
4209 8433
4209 7523
4209 2843
4209 2284
4209 41
4208 9902
4208 7980
4208 6046
4208 782
4208 740
4208 237
4207 9221
4207 5226
4207 4918
4207 4537
4207 1934
4207 1211
4207 23
4206 6325
4206 3129
4206 725
4206 7
4205 7121
4205 4285
4205 3310
4205 1436
4205 166
4204 364
4204 218
4204 126
4203 7954
4203 422
4203 126
4203 74
4202 3740
4202 76
4202 10
4201 7878
4201 5824
4201 1551
4201 180
4201 111
4200 9169
4200 6918
4200 6607
4200 5294
4200 5265
4200 4485
4200 3480
4200 638
4200 14
4199 1678
4199 1409
4199 260
4198 7535
4198 7389
4198 564
4198 72
4198 2
4197 4756
4197 2339
4197 472
4197 77
4196 3228
4196 328
4196 0
4195 6941
4195 1942
4195 1131
4195 285
4194 6972
4194 3654
4194 576
4194 260
4193 4634
4193 276
4193 269
4193 5
4192 5474
4192 661
4192 251
4192 181
4191 2977
4191 2634
4191 2386
4190 422
4190 286
4190 255
4189 4582
4189 4499
4189 2262
4189 1417
4189 550
4188 2490
4188 1531
4188 197
4187 9290
4187 1707
4187 1444
4187 402
4186 7138
4186 6544
4186 5260
4186 4400
4186 1983
4186 894
4186 33
4185 6850
4185 3804
4185 696
4185 578
4184 4754
4184 1647
4184 125
4184 7
4183 3805
4183 78
4183 2
4182 8123
4182 2606
4182 1532
4182 481
4181 9256
4181 5227
4181 1244
4181 1084
4181 222
4180 9853
4180 8050
4180 6865
4180 6538
4180 4440
4180 4066
4180 796
4180 104
4179 9121
4179 5088
4179 4775
4179 2696
4179 2604
4179 1310
4178 336
4178 248
4178 10
4177 9268
4177 7581
4177 4497
4177 1870
4177 1301
4177 90
4176 9512
4176 6698
4176 4376
4176 2435
4176 581
4176 387
4175 3771
4175 3012
4175 2104
4174 3704
4174 3145
4174 19
4173 1426
4173 781
4173 717
4172 6119
4172 5646
4172 5268
4172 4228
4172 3852
4172 3081
4172 17
4171 8302
4171 4728
4171 4362
4171 729
4171 141
4171 97
4170 9452
4170 3875
4170 2694
4170 867
4169 9208
4169 8643
4169 2984
4169 2249
4169 73
4168 8253
4168 5031
4168 4791
4168 4235
4168 3942
4168 1786
4168 387
4167 2049
4167 1244
4167 1089
4166 1036
4166 347
4166 18
4165 9525
4165 8195
4165 5802
4165 2862
4165 2233
4165 2034
4164 8889
4164 6519
4164 6192
4164 6072
4164 2314
4164 540
4164 9
4163 8847
4163 6440
4163 6397
4163 5423
4163 5360
4163 2491
4163 1615
4163 1359
4162 9040
4162 6751
4162 5402
4162 1819
4162 64
4162 45
4161 2001
4161 1341
4161 30
4160 1455
4160 535
4160 392
4159 1375
4159 802
4159 44
4158 8527
4158 5107
4158 2356
4158 1057
4158 14
4157 8909
4157 3704
4157 1053
4157 742
4156 7611
4156 2032
4156 1283
4156 1106
4155 9698
4155 3386
4155 2808
4155 1580
4154 3784
4154 1175
4154 7
4153 7904
4153 7488
4153 3303
4153 2882
4153 641
4152 6632
4152 2786
4152 1873
4152 184
4151 2044
4151 1892
4151 45
4150 5585
4150 4110
4150 3059
4150 619
4149 7963
4149 7856
4149 3677
4149 1253
4149 188
4148 4959
4148 2215
4148 1486
4148 23
4147 8614
4147 8419
4147 8252
4147 6385
4147 5480
4147 1483
4147 655
4147 174
4146 9337
4146 6653
4146 4300
4146 2619
4146 2166
4146 1638
4145 9053
4145 4133
4145 551
4145 262
4144 7264
4144 6712
4144 6532
4144 6507
4144 4597
4144 3030
4144 472
4144 5
4143 9454
4143 9251
4143 8756
4143 8464
4143 7810
4143 6424
4143 844
4143 365
4143 196
4142 2668
4142 1531
4142 678
4141 8186
4141 8158
4141 2699
4141 1483
4141 506
4140 5813
4140 3543
4140 2748
4140 337
4139 255
4139 118
4139 117
4138 3760
4138 3115
4138 1732
4137 8080
4137 6369
4137 3857
4137 3537
4137 11
4136 9337
4136 3549
4136 1012
4136 150
4135 6699
4135 4833
4135 837
4135 39
4135 0
4134 7984
4134 5853
4134 5434
4134 4448
4134 3517
4134 1795
4134 19
4133 9272
4133 5485
4133 5396
4133 5016
4133 4796
4133 4633
4133 4145
4133 1786
4133 1285
4133 893
4132 9621
4132 9475
4132 4109
4132 2072
4132 0
4131 4231
4131 3728
4131 654
4131 174
4130 6622
4130 5416
4130 4839
4130 4820
4130 2124
4130 1797
4130 454
4129 7998
4129 1081
4129 262
4129 176
4128 9895
4128 9127
4128 3592
4128 2042
4128 633
4127 8687
4127 7814
4127 6155
4127 6025
4127 4915
4127 4436
4127 4310
4127 2671
4127 189
4127 19
4126 7606
4126 6613
4126 5004
4126 2904
4126 799
4126 67
4125 6309
4125 6183
4125 4872
4125 4052
4125 120
4125 44
4124 2408
4124 145
4124 140
4123 6186
4123 3386
4123 2959
4123 401
4122 6948
4122 2798
4122 138
4122 6
4121 8121
4121 5529
4121 4840
4121 2648
4121 937
4121 677
4120 6041
4120 5503
4120 5361
4120 1102
4120 92
4120 33
4119 3810
4119 901
4119 144
4118 4747
4118 4644
4118 3266
4118 1007
4118 9
4117 9179
4117 7642
4117 4454
4117 1314
4117 90
4117 55
4116 5138
4116 2421
4116 61
4116 41
4115 7068
4115 6345
4115 3427
4115 2912
4115 1805
4114 5586
4114 1419
4114 585
4114 115
4113 5157
4113 3015
4113 1946
4113 977
4112 9941
4112 7250
4112 7203
4112 4948
4112 3669
4112 2099
4112 117
4111 5722
4111 1752
4111 1691
4111 107
4110 9868
4110 8514
4110 6540
4110 6419
4110 4150
4110 3490
4110 560
4110 97
4109 9963
4109 8512
4109 7993
4109 7226
4109 4132
4109 3443
4109 1300
4109 178
4108 6951
4108 4871
4108 3465
4108 3283
4108 1921
4107 5092
4107 1430
4107 770
4107 718
4106 8067
4106 6955
4106 5165
4106 2428
4106 1928
4106 202
4105 3656
4105 981
4105 26
4104 3368
4104 1880
4104 583
4103 9875
4103 6534
4103 6131
4103 5265
4103 3594
4103 135
4103 17
4102 7917
4102 7344
4102 4047
4102 1014
4102 7
4101 3660
4101 3591
4101 1287
4100 4262
4100 3999
4100 142
4100 9
4099 8444
4099 3414
4099 587
4099 444
4098 9461
4098 9248
4098 9076
4098 6763
4098 6210
4098 3688
4098 1522
4098 728
4097 5466
4097 1538
4097 666
4097 380
4096 4050
4096 547
4096 186
4095 9495
4095 6605
4095 6319
4095 1566
4095 1452
4095 612
4094 9905
4094 2565
4094 1594
4094 411
4093 6941
4093 5620
4093 3924
4093 1773
4093 434
4092 1294
4092 1077
4092 39
4091 259
4091 46
4091 0
4090 8526
4090 6986
4090 6807
4090 2534
4090 2258
4090 137
4089 5013
4089 2989
4089 973
4089 236
4088 7301
4088 5858
4088 4579
4088 3319
4088 3207
4088 117
4087 9884
4087 9821
4087 6226
4087 4740
4087 3335
4087 3146
4087 2341
4086 9909
4086 9331
4086 5719
4086 2173
4086 2016
4086 1936
4085 6779
4085 5276
4085 3543
4085 1170
4085 806
4084 598
4084 537
4084 355
4083 3981
4083 1473
4083 115
4082 1182
4082 1078
4082 192
4081 1839
4081 174
4081 4
4080 3606
4080 1667
4080 464
4079 8595
4079 3796
4079 1140
4079 23
4078 8358
4078 7467
4078 5931
4078 3942
4078 3739
4078 57
4077 6850
4077 6694
4077 3726
4077 294
4077 52
4076 9499
4076 283
4076 241
4076 239
4075 4025
4075 2485
4075 554
4074 9718
4074 6725
4074 4500
4074 3048
4074 583
4074 180
4073 9371
4073 4769
4073 4417
4073 935
4073 345
4073 142
4072 3292
4072 303
4072 255
4071 8524
4071 3578
4071 2345
4071 2126
4070 9164
4070 5634
4070 4229
4070 4042
4070 3215
4070 1503
4069 8823
4069 5815
4069 4790
4069 4558
4069 4359
4069 2296
4069 1221
4069 901
4068 8967
4068 2426
4068 591
4068 323
4067 7629
4067 6963
4067 2807
4067 141
4067 27
4066 4180
4066 72
4066 37
4066 0
4065 7011
4065 857
4065 366
4065 193
4064 9327
4064 8965
4064 584
4064 47
4064 7
4063 6244
4063 1969
4063 1427
4063 977
4062 7866
4062 2005
4062 339
4062 141
4061 1307
4061 656
4061 9
4060 6634
4060 4050
4060 634
4060 50
4059 9984
4059 8886
4059 5368
4059 2654
4059 215
4059 19
4058 9158
4058 3127
4058 2965
4058 2463
4057 8645
4057 444
4057 199
4057 178
4056 9593
4056 5336
4056 4020
4056 3560
4056 1079
4055 1119
4055 596
4055 113
4054 7896
4054 5130
4054 4898
4054 2341
4054 1401
4054 1042
4053 794
4053 262
4053 50
4052 9674
4052 8746
4052 6028
4052 5331
4052 4412
4052 4125
4052 2899
4052 120
4052 2
4051 8855
4051 7877
4051 4513
4051 2688
4051 631
4051 444
4050 5406
4050 4096
4050 4060
4050 193
4050 45
4050 4
4049 8946
4049 8739
4049 3423
4049 3286
4049 23
4048 5909
4048 3329
4048 1906
4048 294
4047 4925
4047 4862
4047 4102
4047 3658
4047 2076
4047 88
4046 940
4046 772
4046 548
4045 9867
4045 9069
4045 8875
4045 8757
4045 7528
4045 2878
4045 1985
4045 1978
4044 7981
4044 6513
4044 4910
4044 3624
4044 956
4044 402
4043 2993
4043 648
4043 92
4042 4070
4042 3530
4042 1642
4042 293
4041 7218
4041 6854
4041 2360
4041 1184
4041 38
4040 8724
4040 7887
4040 7471
4040 4977
4040 1609
4040 920
4040 83
4039 5256
4039 5169
4039 3460
4039 723
4039 7
4038 6092
4038 3513
4038 2164
4038 984
4037 6714
4037 2074
4037 1942
4037 513
4036 4991
4036 4475
4036 3544
4036 1866
4036 1160
4035 1527
4035 903
4035 669
4034 6437
4034 2871
4034 2231
4034 345
4033 2995
4033 592
4033 2
4032 8045
4032 6860
4032 2064
4032 1982
4032 77
4031 9195
4031 2456
4031 92
4031 7
4030 3977
4030 771
4030 126
4029 6575
4029 5654
4029 2250
4029 293
4029 100
4028 3113
4028 708
4028 110
4027 5751
4027 4654
4027 3564
4027 3160
4027 1578
4026 6180
4026 3776
4026 1382
4026 55
4025 8268
4025 4468
4025 4075
4025 1774
4025 397
4025 213
4024 7991
4024 1553
4024 884
4024 196
4023 5736
4023 1114
4023 1108
4023 381
4022 1860
4022 1749
4022 11
4021 7084
4021 5744
4021 1080
4021 1059
4021 17
4020 4903
4020 4056
4020 1427
4020 129
4020 9
4019 8270
4019 2696
4019 2610
4019 512
4018 8103
4018 4294
4018 2787
4018 2586
4018 2196
4017 9910
4017 2460
4017 2085
4017 342
4016 8609
4016 4910
4016 4726
4016 2697
4016 491
4016 205
4015 1671
4015 834
4015 123
4014 9883
4014 8645
4014 6332
4014 6236
4014 3926
4014 871
4014 184
4013 7341
4013 5808
4013 3690
4013 621
4013 428
4012 2496
4012 551
4012 4
4011 3990
4011 3274
4011 187
4010 9
4010 7
4010 6
4009 9107
4009 7026
4009 2963
4009 2878
4009 1648
4008 2048
4008 1185
4008 765
4007 3376
4007 2777
4007 458
4006 8433
4006 3186
4006 2534
4006 724
4005 8014
4005 7838
4005 3863
4005 2067
4005 71
4004 802
4004 670
4004 210
4003 1229
4003 957
4003 2
4002 7034
4002 1081
4002 498
4002 154
4001 9696
4001 6144
4001 5272
4001 669
4001 307
4001 138
4000 7448
4000 477
4000 297
4000 69
3999 5039
3999 4100
3999 356
3999 301
3999 27
3998 6725
3998 3978
3998 2527
3998 676
3997 6303
3997 3751
3997 2750
3997 883
3996 7385
3996 4262
3996 3690
3996 3491
3996 289
3995 8697
3995 8357
3995 7231
3995 6701
3995 3131
3995 2393
3995 2076
3994 8283
3994 3671
3994 621
3994 95
3993 4895
3993 3812
3993 1289
3993 982
3992 9328
3992 7963
3992 6669
3992 5394
3992 4421
3992 2921
3992 2836
3992 983
3991 1617
3991 1290
3991 707
3990 6012
3990 4885
3990 4263
3990 4219
3990 4011
3990 3555
3990 1891
3990 27
3989 3064
3989 500
3989 72
3988 6580
3988 3965
3988 430
3988 110
3987 7129
3987 2779
3987 1949
3987 130
3986 4999
3986 1491
3986 1290
3986 456
3985 8918
3985 610
3985 115
3985 35
3984 9363
3984 7686
3984 5436
3984 3124
3984 2428
3984 745
3983 6059
3983 4421
3983 3224
3983 2054
3983 539
3982 8135
3982 5501
3982 4774
3982 3706
3982 1819
3982 627
3981 9164
3981 4083
3981 1332
3981 1283
3981 116
3980 6687
3980 1615
3980 1099
3980 336
3979 1667
3979 1591
3979 1481
3978 6351
3978 5830
3978 4316
3978 3998
3978 110
3978 50
3978 0
3977 4030
3977 3682
3977 1236
3977 897
3976 9078
3976 7667
3976 7001
3976 4603
3976 3732
3976 2347
3976 1650
3975 9920
3975 4601
3975 1205
3975 1095
3975 7
3974 9849
3974 8628
3974 6261
3974 600
3974 199
3974 174
3973 5755
3973 5475
3973 5450
3973 1831
3973 415
3973 37
3972 7119
3972 1702
3972 1352
3972 42
3971 1198
3971 659
3971 20
3970 5885
3970 3928
3970 3390
3970 1860
3969 9456
3969 7320
3969 6290
3969 5953
3969 4824
3969 4281
3969 4254
3969 3577
3969 1246
3969 41
3968 9024
3968 8513
3968 7713
3968 7234
3968 4367
3968 4345
3968 3176
3968 1022
3968 182
3967 2983
3967 1417
3967 883
3966 7752
3966 5486
3966 5120
3966 1191
3966 1124
3966 210
3965 8027
3965 3988
3965 1591
3965 683
3965 328
3964 1000
3964 606
3964 490
3963 7760
3963 7671
3963 7218
3963 3215
3963 1361
3963 11
3962 583
3962 356
3962 13
3961 9588
3961 6818
3961 3309
3961 1160
3961 119
3960 9347
3960 8117
3960 6589
3960 6192
3960 1393
3960 1134
3960 134
3959 4258
3959 3418
3959 3158
3959 1200
3958 1520
3958 1041
3958 410
3957 9633
3957 7304
3957 3871
3957 1468
3957 12
3956 947
3956 740
3956 26
3955 3482
3955 827
3955 283
3954 9745
3954 7350
3954 6491
3954 5267
3954 261
3954 77
3954 55
3953 9740
3953 1349
3953 540
3953 120
3952 1235
3952 1184
3952 395
3951 9986
3951 7370
3951 4492
3951 1530
3951 560
3951 149
3950 1688
3950 208
3950 117
3949 2808
3949 1046
3949 28
3948 809
3948 33
3948 26
3947 7959
3947 6377
3947 3381
3947 604
3947 3
3946 9985
3946 3681
3946 3600
3946 387
3945 8889
3945 8510
3945 7577
3945 4888
3945 3928
3945 632
3945 10
3944 5928
3944 4308
3944 1023
3944 598
3944 232
3943 5041
3943 4934
3943 3130
3943 995
3943 630
3942 6811
3942 5521
3942 5485
3942 4168
3942 4078
3942 3862
3942 2982
3942 1826
3941 1896
3941 1853
3941 111
3940 8969
3940 7603
3940 3860
3940 1968
3940 1742
3939 6728
3939 1083
3939 161
3939 7
3938 5661
3938 4942
3938 763
3938 578
3938 102
3937 9330
3937 5317
3937 2345
3937 461
3937 232
3936 1047
3936 162
3936 117
3935 9986
3935 7456
3935 6842
3935 5621
3935 4750
3935 3722
3935 1441
3935 1069
3934 7043
3934 5463
3934 564
3934 181
3934 43
3933 9025
3933 3619
3933 1083
3933 963
3932 2344
3932 1664
3932 177
3931 2057
3931 61
3931 2
3930 8626
3930 6650
3930 3508
3930 246
3930 76
3929 9523
3929 9342
3929 5329
3929 3572
3929 2767
3929 2642
3928 5359
3928 4909
3928 4303
3928 3970
3928 3945
3928 3465
3928 932
3928 300
3927 7142
3927 5424
3927 5255
3927 3562
3927 3286
3927 5
3926 8473
3926 7603
3926 4674
3926 4014
3926 2736
3926 1000
3926 176
3925 8485
3925 7892
3925 6094
3925 5586
3925 5171
3925 4913
3925 4548
3925 1504
3925 912
3925 603
3924 6697
3924 4093
3924 3871
3924 3675
3924 2272
3923 8218
3923 8026
3923 4973
3923 4365
3923 2656
3923 753
3923 83
3922 8914
3922 7566
3922 4576
3922 4427
3922 4219
3922 2285
3922 1869
3922 1722
3921 9376
3921 9223
3921 8541
3921 4484
3921 4267
3921 2687
3921 2577
3921 1140
3920 9088
3920 5801
3920 1628
3920 956
3920 30
3919 9880
3919 7196
3919 5231
3919 272
3919 23
3919 7
3918 2765
3918 1449
3918 469
3917 8617
3917 7322
3917 3901
3917 3153
3917 3016
3916 8104
3916 7567
3916 4351
3916 1805
3916 1687
3916 341
3915 4214
3915 2104
3915 98
3915 7
3914 4515
3914 2646
3914 986
3914 228
3913 7918
3913 3173
3913 1268
3913 36
3912 9933
3912 9827
3912 1021
3912 616
3912 0
3911 8652
3911 7496
3911 7404
3911 7175
3911 5902
3911 5595
3911 1753
3911 1491
3911 514
3910 8418
3910 8329
3910 5905
3910 5670
3910 2259
3910 834
3910 25
3909 7436
3909 6493
3909 2157
3909 259
3909 14
3908 7885
3908 6503
3908 2381
3908 683
3908 68
3907 9052
3907 1146
3907 1092
3907 698
3906 5150
3906 1768
3906 910
3906 256
3905 8299
3905 7621
3905 5407
3905 4628
3905 4358
3905 2538
3905 509
3905 39
3904 9440
3904 1255
3904 222
3904 69
3903 3007
3903 1634
3903 724
3902 1111
3902 978
3902 246
3901 6172
3901 3917
3901 3467
3901 608
3901 413
3900 1078
3900 544
3900 324
3899 2689
3899 1401
3899 14
3898 9390
3898 3528
3898 594
3898 9
3897 8917
3897 8527
3897 6454
3897 6142
3897 5243
3897 5084
3897 4968
3897 1486
3897 503
3897 65
3896 1451
3896 135
3896 11
3895 6447
3895 2368
3895 869
3895 812
3894 4419
3894 691
3894 672
3894 207
3893 9701
3893 6492
3893 6372
3893 5900
3893 5803
3893 2665
3893 1184
3893 272
3892 3752
3892 1275
3892 9
3891 9860
3891 9029
3891 7707
3891 6370
3891 3571
3891 189
3891 158
3890 5702
3890 3365
3890 843
3890 109
3889 2851
3889 2335
3889 1608
3888 5804
3888 5063
3888 4330
3888 3368
3888 678
3888 44
3887 4799
3887 4249
3887 1027
3887 486
3887 69
3886 9466
3886 9421
3886 8793
3886 3350
3886 1946
3886 7
3885 7462
3885 7359
3885 2236
3885 45
3885 27
3884 7629
3884 3812
3884 577
3884 15
3883 6257
3883 5606
3883 2982
3883 2344
3883 2300
3882 5374
3882 3804
3882 1541
3882 7
3881 5992
3881 2544
3881 2124
3881 61
3880 9929
3880 8205
3880 3216
3880 1180
3880 127
3879 5474
3879 1294
3879 429
3879 169
3878 2184
3878 1504
3878 513
3877 9840
3877 9824
3877 7208
3877 3296
3877 2449
3877 544
3876 8540
3876 5446
3876 2499
3876 1568
3876 1331
3875 9251
3875 6731
3875 6206
3875 4170
3875 2910
3875 2748
3875 363
3874 6523
3874 4292
3874 284
3874 23
3874 17
3873 9394
3873 9226
3873 7809
3873 6143
3873 6142
3873 5031
3873 4322
3873 3505
3873 2099
3873 543
3872 4691
3872 1872
3872 1223
3872 403
3871 9168
3871 6036
3871 3957
3871 3924
3871 3340
3871 2250
3871 1221
3870 3587
3870 3163
3870 1021
3869 9971
3869 624
3869 105
3869 33
3868 9256
3868 2967
3868 1155
3868 7
3867 9539
3867 3213
3867 2871
3867 1986
3866 1742
3866 61
3866 11
3865 3809
3865 1347
3865 92
3864 9859
3864 5360
3864 1608
3864 1114
3864 597
3863 6119
3863 5898
3863 4005
3863 3131
3863 491
3863 27
3862 9992
3862 5903
3862 5234
3862 4801
3862 4736
3862 3942
3862 836
3862 239
3862 24
3861 6809
3861 3094
3861 1508
3861 353
3860 5771
3860 4305
3860 3940
3860 1966
3860 872
3860 578
3859 3211
3859 1960
3859 64
3858 847
3858 390
3858 29
3857 8501
3857 4941
3857 4137
3857 625
3857 606
3857 482
3856 8183
3856 2729
3856 2628
3856 318
3855 5056
3855 2982
3855 2574
3855 1083
3854 9540
3854 7022
3854 2680
3854 2037
3854 66
3853 2535
3853 2499
3853 240
3852 4172
3852 2156
3852 311
3852 140
3851 8136
3851 5036
3851 1864
3851 1290
3851 977
3850 1984
3850 1558
3850 6
3849 4328
3849 3390
3849 550
3849 158
3848 8379
3848 3704
3848 2870
3848 2675
3847 3692
3847 559
3847 382
3846 2464
3846 2377
3846 1
3845 2345
3845 798
3845 0
3844 9032
3844 7789
3844 6666
3844 5340
3844 4857
3844 4278
3844 2216
3844 1031
3844 323
3843 9410
3843 2176
3843 651
3843 46
3842 8786
3842 5184
3842 4954
3842 654
3842 485
3842 159
3841 7833
3841 7794
3841 2001
3841 860
3841 11
3840 7800
3840 7236
3840 5696
3840 5435
3840 1564
3840 603
3840 99
3839 3695
3839 3633
3839 1314
3838 6862
3838 2549
3838 1126
3838 182
3837 8069
3837 7772
3837 7097
3837 5660
3837 897
3837 335
3837 0
3836 3210
3836 1182
3836 9
3835 9336
3835 8344
3835 7073
3835 5451
3835 696
3835 55
3835 7
3834 8387
3834 7587
3834 5771
3834 3174
3834 2360
3834 806
3833 9274
3833 7117
3833 1883
3833 1483
3833 1138
3832 9981
3832 4415
3832 3284
3832 151
3832 63
3831 3416
3831 1603
3831 1506
3830 5837
3830 4775
3830 1290
3830 382
3830 26
3829 7813
3829 6320
3829 5734
3829 72
3829 54
3829 5
3828 3070
3828 1303
3828 1244
3827 3295
3827 182
3827 28
3826 2613
3826 1655
3826 1541
3825 7692
3825 313
3825 145
3825 53
3824 1597
3824 1046
3824 717
3823 4538
3823 4416
3823 2440
3823 116
3823 1
3822 8001
3822 7975
3822 245
3822 27
3822 11
3821 8731
3821 4739
3821 1956
3821 256
3821 210
3820 5390
3820 5173
3820 771
3820 416
3820 226
3819 8436
3819 6976
3819 4735
3819 2920
3819 641
3819 482
3818 5503
3818 2006
3818 885
3818 107
3817 7696
3817 5343
3817 1571
3817 939
3817 84
3816 9233
3816 8633
3816 8435
3816 6127
3816 5629
3816 1658
3816 1594
3816 843
3815 8479
3815 1020
3815 861
3815 26
3814 7582
3814 3657
3814 57
3814 4
3813 4442
3813 3801
3813 3777
3813 17
3812 9641
3812 8442
3812 3993
3812 3884
3812 72
3812 46
3812 28
3811 7836
3811 6524
3811 1319
3811 763
3811 678
3810 8754
3810 5372
3810 4668
3810 4632
3810 4119
3810 1326
3810 203
3810 14
3809 9549
3809 7867
3809 7102
3809 6795
3809 6670
3809 5170
3809 4729
3809 4382
3809 3865
3809 3130
3809 1200
3809 807
3808 3637
3808 3108
3808 249
3807 7374
3807 7325
3807 1212
3807 139
3807 84
3806 4528
3806 3740
3806 3398
3806 567
3805 7253
3805 7008
3805 5739
3805 4183
3805 2779
3805 1082
3805 107
3804 9188
3804 8174
3804 6867
3804 4738
3804 4185
3804 3882
3804 3258
3804 2124
3804 626
3803 9822
3803 2364
3803 1112
3803 3
3802 3633
3802 1930
3802 6
3801 9080
3801 7413
3801 6708
3801 5172
3801 3813
3801 2189
3801 1311
3801 932
3800 8842
3800 8696
3800 4600
3800 2997
3800 630
3800 17
3799 9111
3799 6913
3799 5573
3799 1075
3799 19
3799 4
3798 8010
3798 7821
3798 6471
3798 5906
3798 2875
3798 95
3798 13
3797 9564
3797 7369
3797 6061
3797 2124
3797 1287
3797 1037
3796 4079
3796 3591
3796 3182
3796 51
3795 8792
3795 8753
3795 8727
3795 5251
3795 2933
3795 2764
3795 1075
3794 6095
3794 5750
3794 5335
3794 5267
3794 2173
3794 735
3794 674
3793 5894
3793 2443
3793 1147
3793 51
3792 9344
3792 7605
3792 796
3792 57
3792 50
3791 9505
3791 8481
3791 7345
3791 5286
3791 4651
3791 2717
3791 1400
3791 639
3790 3384
3790 1194
3790 680
3789 3492
3789 1615
3789 1059
3788 7198
3788 3676
3788 251
3788 7
3787 8834
3787 6619
3787 3197
3787 919
3787 150
3786 3551
3786 2188
3786 1035
3785 6873
3785 3135
3785 702
3785 195
3784 9642
3784 4154
3784 953
3784 667
3784 184
3783 9652
3783 6933
3783 3650
3783 3365
3783 265
3782 3547
3782 796
3782 90
3781 3690
3781 199
3781 60
3780 3121
3780 1476
3780 37
3779 3515
3779 1119
3779 3
3778 8686
3778 2829
3778 2189
3778 607
3777 5352
3777 4666
3777 3813
3777 2442
3777 1704
3777 1606
3776 7100
3776 4026
3776 2539
3776 343
3776 0
3775 990
3775 622
3775 169
3774 7402
3774 1096
3774 641
3774 55
3773 2526
3773 1387
3773 673
3772 7087
3772 1677
3772 77
3772 53
3771 9759
3771 4175
3771 3259
3771 1946
3771 1918
3770 9639
3770 9045
3770 6173
3770 3389
3770 1203
3770 299
3769 3308
3769 841
3769 252
3768 6353
3768 4905
3768 2896
3768 2237
3768 2
3767 8869
3767 4752
3767 4525
3767 4353
3767 3003
3767 1667
3767 30
3766 5249
3766 1778
3766 1600
3766 222
3765 2871
3765 1725
3765 7
3764 5623
3764 3296
3764 2058
3764 346
3763 5332
3763 3723
3763 473
3763 190
3762 964
3762 871
3762 784
3761 9821
3761 5133
3761 2018
3761 1382
3761 902
3760 4138
3760 3607
3760 2009
3760 767
3759 3242
3759 2113
3759 742
3758 4900
3758 3043
3758 577
3758 80
3757 3665
3757 2764
3757 1307
3756 9003
3756 8639
3756 288
3756 275
3756 57
3755 9245
3755 3706
3755 993
3755 429
3754 5073
3754 3071
3754 796
3754 422
3753 1623
3753 457
3753 182
3752 8325
3752 3892
3752 1928
3752 227
3752 51
3751 6623
3751 3997
3751 2189
3751 809
3751 346
3750 7464
3750 7136
3750 3694
3750 1131
3750 648
3749 7322
3749 6475
3749 5924
3749 5129
3749 4363
3749 2936
3749 1556
3749 724
3748 3579
3748 1406
3748 935
3747 6043
3747 153
3747 143
3747 125
3746 9716
3746 8147
3746 7067
3746 4946
3746 1314
3746 1241
3746 187
3745 1818
3745 444
3745 140
3744 8679
3744 2158
3744 1062
3744 133
3743 7290
3743 4991
3743 4337
3743 3230
3743 38
3743 1
3742 3716
3742 2446
3742 4
3741 5691
3741 5656
3741 3000
3741 728
3741 72
3740 7139
3740 5471
3740 5052
3740 4580
3740 4557
3740 4202
3740 3806
3740 3475
3740 2099
3740 1630
3739 8237
3739 7259
3739 4078
3739 784
3739 187
3739 24
3738 1223
3738 828
3738 9
3737 1929
3737 1720
3737 1485
3736 9058
3736 6143
3736 5884
3736 5321
3736 5311
3736 5214
3736 3354
3736 1650
3736 1250
3735 1394
3735 1250
3735 333
3734 7349
3734 2790
3734 280
3734 18
3733 9083
3733 2016
3733 1692
3733 19
3732 9683
3732 9216
3732 6485
3732 3976
3732 3609
3732 3238
3732 1010
3731 8927
3731 6436
3731 5793
3731 5224
3731 3690
3731 3239
3731 1519
3730 5709
3730 3130
3730 1220
3730 708
3729 7130
3729 4573
3729 4394
3729 2332
3729 407
3729 0
3728 9915
3728 4131
3728 426
3728 304
3728 224
3727 9824
3727 9118
3727 2161
3727 833
3727 169
3726 4077
3726 1473
3726 402
3726 26
3725 8817
3725 824
3725 291
3725 115
3724 7268
3724 7265
3724 5872
3724 4704
3724 2268
3724 187
3724 99
3723 7987
3723 6239
3723 6042
3723 5893
3723 5562
3723 3763
3723 503
3723 90
3723 10
3722 9560
3722 6807
3722 3935
3722 627
3722 533
3722 444
3721 8562
3721 8488
3721 2934
3721 1157
3721 828
3720 2412
3720 730
3720 254
3719 9915
3719 6980
3719 2924
3719 930
3719 119
3718 7928
3718 5124
3718 3045
3718 307
3718 2
3717 9152
3717 5549
3717 2804
3717 2653
3717 7
3716 4399
3716 3742
3716 1837
3716 271
3716 26
3715 8872
3715 8629
3715 1294
3715 904
3715 825
3714 804
3714 643
3714 322
3713 6911
3713 4919
3713 4712
3713 4387
3713 2855
3713 1257
3713 1120
3712 4800
3712 1972
3712 1626
3712 280
3711 7812
3711 5943
3711 3209
3711 236
3711 35
3710 4405
3710 3585
3710 2693
3710 1424
3709 8969
3709 8802
3709 3310
3709 274
3709 260
3708 1398
3708 1375
3708 1207
3707 9341
3707 2546
3707 244
3707 135
3706 8331
3706 7066
3706 6732
3706 3982
3706 3755
3706 1526
3706 1165
3706 105
3705 9728
3705 7687
3705 6570
3705 5432
3705 2778
3705 123
3705 57
3704 5694
3704 4974
3704 4174
3704 4157
3704 3848
3704 3368
3704 1925
3704 984
3703 771
3703 296
3703 3
3702 5035
3702 3679
3702 2099
3702 20
3701 9461
3701 8591
3701 6255
3701 5340
3701 5339
3701 2990
3701 1005
3701 2
3700 9327
3700 9212
3700 6420
3700 2845
3700 493
3700 55
3699 2133
3699 714
3699 396
3698 9687
3698 6759
3698 6446
3698 5583
3698 4431
3698 1100
3698 415
3698 69
3697 5880
3697 1646
3697 700
3697 164
3696 3127
3696 2420
3696 296
3695 3839
3695 3259
3695 1681
3695 193
3694 7609
3694 7373
3694 6256
3694 3750
3694 1399
3694 156
3694 26
3693 9757
3693 6486
3693 1296
3693 809
3693 289
3692 6209
3692 3847
3692 1827
3692 212
3692 11
3691 5288
3691 3451
3691 2681
3691 1745
3690 9952
3690 8753
3690 6135
3690 5139
3690 4013
3690 3996
3690 3781
3690 3731
3690 2694
3690 1495
3690 90
3689 6042
3689 2588
3689 2435
3689 624
3688 9766
3688 6687
3688 4962
3688 4225
3688 4098
3688 1930
3688 1179
3688 147
3687 8918
3687 8821
3687 8564
3687 2570
3687 1176
3687 37
3686 9638
3686 9557
3686 8411
3686 8404
3686 8001
3686 7640
3686 2160
3686 815
3686 110
3685 2631
3685 2431
3685 2390
3684 1759
3684 351
3684 200
3683 4398
3683 2190
3683 1407
3683 341
3682 9761
3682 5606
3682 3977
3682 913
3682 668
3682 6
3681 3946
3681 2862
3681 2546
3681 2
3680 3334
3680 31
3680 9
3679 3702
3679 1024
3679 138
3679 46
3678 8035
3678 1262
3678 421
3678 274
3677 9755
3677 8999
3677 6537
3677 5609
3677 4149
3677 2886
3677 2718
3677 273
3676 9639
3676 8375
3676 6801
3676 3788
3676 1707
3676 1664
3676 212
3675 5258
3675 3924
3675 2164
3675 1279
3675 429
3674 5414
3674 5340
3674 4574
3674 1722
3674 1433
3674 71
3673 9773
3673 5369
3673 4843
3673 3226
3673 470
3673 19
3672 5145
3672 3005
3672 2456
3672 980
3671 9014
3671 4751
3671 4387
3671 4327
3671 3994
3671 3513
3671 1865
3671 3
3670 1275
3670 50
3670 37
3669 4112
3669 2680
3669 1004
3669 438
3668 8616
3668 7056
3668 5077
3668 4380
3668 3263
3668 2117
3668 1664
3667 227
3667 61
3667 26
3666 8797
3666 2463
3666 1331
3666 769
3665 8303
3665 5853
3665 4831
3665 3757
3665 3595
3665 822
3665 17
3664 2345
3664 1611
3664 1101
3663 7648
3663 6217
3663 5928
3663 5666
3663 4462
3663 3471
3663 1349
3663 289
3662 9910
3662 6479
3662 2840
3662 767
3662 294
3661 9727
3661 9279
3661 9217
3661 8310
3661 6625
3661 2064
3661 710
3661 567
3660 4101
3660 3108
3660 3030
3660 1503
3659 7334
3659 6379
3659 4375
3659 4246
3659 2437
3659 1236
3659 120
3658 6704
3658 6274
3658 4995
3658 4555
3658 4047
3658 3366
3658 967
3658 72
3657 7690
3657 3814
3657 2780
3657 1524
3657 1464
3656 9659
3656 4105
3656 1509
3656 332
3656 27
3655 7514
3655 538
3655 165
3655 34
3654 9414
3654 8212
3654 6812
3654 6076
3654 4194
3654 3608
3654 901
3654 34
3653 9670
3653 9305
3653 8244
3653 5230
3653 4533
3653 4504
3653 897
3653 850
3653 542
3652 7648
3652 6847
3652 5985
3652 2077
3652 1515
3652 755
3651 2922
3651 226
3651 43
3650 9601
3650 5341
3650 3783
3650 2522
3650 2287
3650 845
3649 7469
3649 4404
3649 3629
3649 288
3649 232
3648 8104
3648 7252
3648 5662
3648 999
3648 774
3648 241
3647 8679
3647 7064
3647 6752
3647 4637
3647 1811
3647 1583
3647 1212
3646 8565
3646 5466
3646 1597
3646 710
3646 61
3645 8914
3645 2463
3645 2099
3645 1831
3644 7557
3644 3614
3644 1503
3644 296
3643 9468
3643 9241
3643 8114
3643 7749
3643 7505
3643 5982
3643 5451
3643 4711
3643 3096
3643 654
3643 31
3642 7957
3642 6975
3642 5021
3642 4271
3642 3074
3642 2869
3642 2467
3641 2308
3641 1382
3641 527
3640 1433
3640 182
3640 28
3639 8306
3639 3616
3639 572
3639 398
3638 3437
3638 346
3638 156
3637 7338
3637 6367
3637 3808
3637 2539
3637 704
3637 576
3636 2776
3636 1285
3636 530
3635 5133
3635 4759
3635 3159
3635 332
3635 6
3634 9906
3634 8166
3634 7745
3634 7333
3634 5044
3634 2465
3634 791
3634 51
3633 5692
3633 3839
3633 3802
3633 2992
3633 2682
3633 544
3632 3337
3632 1880
3632 10
3631 1250
3631 711
3631 634
3630 8514
3630 2760
3630 1512
3630 735
3629 9797
3629 8282
3629 6554
3629 3649
3629 1704
3629 339
3629 142
3628 9582
3628 8490
3628 2098
3628 1714
3628 924
3627 7890
3627 7682
3627 6855
3627 5333
3627 558
3627 421
3627 242
3626 6707
3626 2526
3626 910
3626 6
3625 4453
3625 45
3625 6
3625 4
3624 6314
3624 5494
3624 5037
3624 4498
3624 4255
3624 4044
3624 3099
3624 2654
3624 2094
3623 3520
3623 2195
3623 596
3622 8869
3622 8578
3622 901
3622 395
3622 346
3621 2922
3621 166
3621 2
3620 1275
3620 1199
3620 187
3619 8558
3619 7525
3619 6448
3619 5489
3619 4357
3619 3933
3619 2057
3619 1313
3619 211
3618 9891
3618 9558
3618 6439
3618 4851
3618 4234
3618 3005
3618 79
3618 78
3617 2145
3617 1024
3617 467
3616 5516
3616 3639
3616 2734
3616 2427
3616 1472
3615 9825
3615 2332
3615 1789
3615 46
3614 6587
3614 5036
3614 4846
3614 3644
3614 845
3614 292
3614 32
3613 5402
3613 3241
3613 864
3613 93
3612 8611
3612 8509
3612 6658
3612 6619
3612 6034
3612 2922
3612 83
3612 42
3611 8598
3611 7240
3611 1664
3611 1264
3611 283
3610 9003
3610 5487
3610 5288
3610 4247
3610 2264
3610 782
3610 109
3609 4929
3609 3732
3609 1345
3609 514
3609 342
3608 9710
3608 7610
3608 6871
3608 5307
3608 4813
3608 4479
3608 4296
3608 3654
3608 2762
3608 1386
3608 1056
3607 7813
3607 3760
3607 2301
3607 1346
3607 509
3606 9753
3606 4080
3606 3275
3606 1234
3606 950
3605 8345
3605 7347
3605 6758
3605 4534
3605 4330
3605 2237
3605 692
3605 559
3604 8490
3604 4226
3604 2922
3604 2089
3604 1329
3603 1025
3603 909
3603 225
3602 9813
3602 3436
3602 1855
3602 1018
3601 2710
3601 197
3601 146
3600 8545
3600 8058
3600 7709
3600 7083
3600 5639
3600 4946
3600 3946
3600 3165
3600 1056
3600 294
3599 7095
3599 5904
3599 3280
3599 2854
3599 135
3598 8729
3598 2878
3598 485
3598 113
3597 8563
3597 7637
3597 2203
3597 68
3597 11
3596 8321
3596 6529
3596 6099
3596 1289
3596 894
3596 339
3595 9861
3595 9395
3595 9078
3595 8756
3595 8144
3595 6662
3595 5293
3595 3665
3595 1934
3595 748
3595 280
3594 5786
3594 4103
3594 2015
3594 1577
3594 1043
3593 3084
3593 713
3593 466
3592 4128
3592 1239
3592 837
3592 7
3591 7335
3591 4101
3591 3796
3591 1399
3591 470
3591 38
3590 9483
3590 2760
3590 2756
3590 639
3589 8681
3589 5683
3589 5566
3589 1787
3589 1768
3589 648
3588 8840
3588 4638
3588 2452
3588 447
3588 115
3587 9892
3587 7805
3587 6244
3587 4693
3587 3870
3587 2990
3587 728
3587 122
3586 7613
3586 6608
3586 669
3586 72
3586 16
3585 3710
3585 1685
3585 1119
3585 115
3584 8165
3584 6671
3584 1071
3584 317
3584 47
3583 6219
3583 3396
3583 1760
3583 689
3582 8290
3582 3575
3582 3396
3582 3057
3581 8523
3581 4961
3581 1287
3581 771
3581 522
3580 6680
3580 5706
3580 3242
3580 1506
3580 1419
3579 8609
3579 5473
3579 3748
3579 3502
3579 79
3579 9
3578 8763
3578 5662
3578 4422
3578 4071
3578 2232
3578 1512
3578 376
3577 6806
3577 4771
3577 4236
3577 3969
3577 1766
3577 1335
3577 815
3576 7473
3576 6180
3576 4531
3576 2274
3576 1568
3576 204
3575 3582
3575 1819
3575 26
3575 5
3574 9379
3574 4670
3574 1064
3574 127
3574 9
3573 9584
3573 4904
3573 998
3573 197
3573 174
3572 5370
3572 4906
3572 3929
3572 3221
3572 1461
3572 387
3571 8995
3571 8579
3571 5409
3571 3891
3571 3544
3571 1332
3571 447
3570 8002
3570 2182
3570 1419
3570 809
3569 8821
3569 4725
3569 1250
3569 204
3569 61
3568 9609
3568 7336
3568 1867
3568 79
3568 0
3567 6162
3567 4772
3567 2499
3567 532
3567 7
3566 2082
3566 1082
3566 14
3565 7449
3565 4572
3565 2385
3565 959
3565 460
3564 9106
3564 4027
3564 2386
3564 1147
3564 84
3563 9814
3563 9224
3563 8280
3563 8259
3563 5554
3563 4713
3563 3270
3563 60
3563 26
3562 9981
3562 9092
3562 3927
3562 1523
3562 613
3562 343
3561 9613
3561 7580
3561 7112
3561 2212
3561 1541
3561 310
3560 8186
3560 5074
3560 4400
3560 4056
3560 1961
3560 651
3560 396
3559 8556
3559 1184
3559 633
3559 7
3558 9729
3558 1948
3558 1648
3558 335
3557 2114
3557 1737
3557 1706
3556 1195
3556 947
3556 772
3555 8705
3555 5613
3555 3990
3555 609
3555 285
3555 41
3554 8958
3554 7750
3554 412
3554 336
3554 32
3553 8901
3553 2915
3553 995
3553 454
3552 8036
3552 7567
3552 5790
3552 1164
3552 193
3552 52
3551 3786
3551 1623
3551 733
3551 559
3550 9585
3550 7860
3550 2799
3550 77
3550 6
3549 9600
3549 7877
3549 4136
3549 1842
3549 417
3549 33
3548 6528
3548 1341
3548 1130
3548 343
3547 3782
3547 3481
3547 212
3547 46
3546 4900
3546 4845
3546 1572
3546 1445
3546 1037
3545 2049
3545 211
3545 93
3544 9999
3544 9858
3544 5671
3544 4036
3544 3571
3544 2661
3544 2194
3544 1499
3543 9907
3543 9777
3543 7246
3543 6959
3543 6424
3543 6091
3543 6075
3543 5920
3543 5127
3543 4546
3543 4363
3543 4140
3543 4085
3543 1893
3543 1370
3543 117
3542 9865
3542 6430
3542 1326
3542 74
3542 70
3541 7262
3541 1226
3541 138
3541 7
3540 8257
3540 6839
3540 6332
3540 5983
3540 3103
3540 2785
3540 474
3539 2687
3539 1818
3539 1456
3538 8898
3538 6022
3538 5957
3538 5584
3538 1162
3538 387
3538 7
3537 6764
3537 5819
3537 5388
3537 4137
3537 3073
3537 875
3537 52
3536 3286
3536 1621
3536 459
3535 6128
3535 1668
3535 161
3535 47
3534 5212
3534 4361
3534 2899
3534 501
3534 342
3533 7644
3533 5593
3533 3129
3533 1945
3533 508
3532 5663
3532 4309
3532 2902
3532 402
3532 4
3531 4210
3531 2360
3531 1430
3531 16
3530 8574
3530 5687
3530 5617
3530 4943
3530 4865
3530 4042
3530 1640
3530 998
3530 135
3529 9538
3529 4745
3529 2394
3529 1045
3529 518
3528 3898
3528 1767
3528 1648
3528 336
3527 8151
3527 7431
3527 6506
3527 3236
3527 3086
3527 7
3526 2651
3526 1219
3526 876
3525 2744
3525 1345
3525 23
3524 8440
3524 8128
3524 1837
3524 1299
3524 597
3523 6187
3523 4654
3523 2255
3523 1858
3523 776
3522 1312
3522 865
3522 199
3521 7867
3521 5638
3521 5203
3521 2381
3521 141
3521 77
3520 9407
3520 9115
3520 6599
3520 6063
3520 4934
3520 3623
3520 1865
3520 11
3520 4
3519 7150
3519 7115
3519 2354
3519 2159
3519 27
3518 7245
3518 2936
3518 2847
3518 619
3517 9954
3517 6167
3517 5149
3517 4134
3517 3102
3517 2028
3517 636
3516 8635
3516 8169
3516 325
3516 72
3516 49
3515 9018
3515 8899
3515 4697
3515 3779
3515 391
3515 174
3515 0
3514 4944
3514 2087
3514 487
3514 246
3513 9496
3513 9074
3513 8694
3513 7728
3513 5811
3513 4038
3513 3671
3513 508
3513 51
3513 5
3512 5638
3512 5556
3512 1427
3512 380
3512 55
3511 9166
3511 3047
3511 2911
3511 714
3510 7667
3510 2568
3510 360
3510 211
3509 9887
3509 9651
3509 9555
3509 2625
3509 2015
3509 65
3508 3930
3508 627
3508 350
3508 228
3507 9176
3507 8766
3507 4689
3507 1241
3507 1036
3507 413
3506 1691
3506 501
3506 102
3505 9618
3505 9260
3505 6267
3505 4732
3505 4562
3505 3873
3505 2745
3505 1550
3505 70
3504 4863
3504 1834
3504 796
3504 309
3503 5364
3503 4841
3503 3013
3503 2482
3503 1613
3502 7742
3502 5616
3502 3579
3502 2629
3502 2229
3502 1959
3501 3279
3501 2760
3501 1057
3500 6986
3500 5260
3500 4335
3500 246
3500 60
3500 7
3499 1910
3499 1412
3499 78
3498 2574
3498 2472
3498 2209
3497 7346
3497 4617
3497 1141
3497 577
3497 222
3496 2948
3496 2304
3496 469
3495 1020
3495 182
3495 179
3494 4811
3494 4247
3494 2652
3494 2476
3494 1329
3493 6929
3493 5475
3493 3405
3493 2914
3493 2344
3492 8691
3492 4857
3492 3789
3492 2248
3492 2214
3492 1132
3491 8173
3491 3996
3491 380
3491 204
3491 37
3490 7450
3490 4658
3490 4110
3490 3471
3490 193
3490 3
3489 9019
3489 7269
3489 1118
3489 459
3489 314
3488 8717
3488 3175
3488 778
3488 611
3487 5762
3487 3013
3487 621
3487 107
3486 7604
3486 6414
3486 2766
3486 796
3486 83
3485 9995
3485 5727
3485 1157
3485 462
3485 199
3484 1737
3484 1454
3484 1173
3483 5404
3483 2894
3483 1326
3483 77
3482 9050
3482 6714
3482 6698
3482 3955
3482 3262
3482 223
3482 14
3481 8343
3481 3547
3481 2473
3481 203
3481 7
3480 4200
3480 3324
3480 1396
3480 83
3479 1052
3479 178
3479 77
3478 2563
3478 2514
3478 601
3477 9459
3477 8430
3477 1968
3477 990
3477 473
3476 5036
3476 4726
3476 2354
3476 1704
3476 417
3475 3740
3475 513
3475 147
3475 4
3474 1698
3474 1215
3474 396
3473 4773
3473 2268
3473 128
3473 107
3472 1691
3472 1382
3472 495
3471 3663
3471 3490
3471 197
3471 153
3471 7
3470 7607
3470 7475
3470 6190
3470 2997
3470 619
3470 9
3469 8341
3469 1820
3469 857
3469 855
3468 6113
3468 4441
3468 2812
3468 1177
3468 166
3467 8160
3467 7059
3467 6772
3467 6476
3467 3901
3467 1650
3467 950
3467 5
3466 8142
3466 3077
3466 7
3466 1
3465 4457
3465 4108
3465 3928
3465 680
3465 247
3465 32
3464 9605
3464 8048
3464 7363
3464 5833
3464 4924
3464 4446
3464 914
3464 740
3464 90
3463 8764
3463 2941
3463 1720
3463 637
3462 6139
3462 5618
3462 1971
3462 458
3462 296
3461 6776
3461 2409
3461 936
3461 891
3460 9214
3460 8521
3460 6448
3460 5769
3460 5696
3460 4858
3460 4566
3460 4039
3460 2192
3460 100
3460 19
3459 5442
3459 2547
3459 46
3459 38
3458 4700
3458 2921
3458 2094
3458 969
3457 6749
3457 6227
3457 6209
3457 4575
3457 1683
3457 792
3457 392
3456 6720
3456 1545
3456 1520
3456 371
3455 5830
3455 5001
3455 613
3455 432
3455 0
3454 7002
3454 6030
3454 5482
3454 2239
3454 1066
3454 791
3453 2923
3453 2859
3453 1313
3452 9250
3452 7270
3452 4424
3452 3127
3452 274
3452 54
3451 9164
3451 3691
3451 2112
3451 1784
3451 704
3450 9287
3450 1001
3450 855
3450 123
3449 7051
3449 6876
3449 5548
3449 1594
3449 1189
3449 306
3448 6844
3448 6137
3448 4471
3448 4386
3448 1148
3448 405
3448 4
3447 1972
3447 1855
3447 1295
3446 3032
3446 710
3446 3
3445 2250
3445 1068
3445 583
3444 1935
3444 769
3444 45
3443 8071
3443 4109
3443 1970
3443 197
3443 2
3442 9702
3442 9503
3442 7999
3442 7850
3442 7144
3442 6546
3442 5026
3442 2099
3442 77
3442 6
3441 671
3441 332
3441 143
3440 918
3440 185
3440 86
3439 9908
3439 8352
3439 6431
3439 2806
3439 179
3439 99
3438 7957
3438 6093
3438 5876
3438 1782
3438 331
3438 48
3437 6170
3437 4372
3437 3638
3437 1475
3437 1358
3437 608
3436 3602
3436 3333
3436 3109
3436 1806
3435 7797
3435 3182
3435 20
3435 7
3434 5560
3434 2140
3434 814
3434 7
3433 3261
3433 2993
3433 156
3432 9735
3432 8811
3432 7499
3432 7375
3432 6653
3432 2020
3432 274
3432 42
3431 7327
3431 6901
3431 5536
3431 2771
3431 1301
3431 117
3430 2675
3430 1554
3430 6
3429 6131
3429 4444
3429 2549
3429 2157
3429 1481
3428 2352
3428 2158
3428 1011
3427 8535
3427 8087
3427 5457
3427 4115
3427 3049
3427 1529
3427 843
3426 9816
3426 1584
3426 860
3426 92
3425 7000
3425 2102
3425 826
3425 316
3424 9621
3424 8236
3424 7935
3424 6080
3424 5795
3424 4502
3424 2783
3424 2285
3424 1664
3423 6855
3423 4049
3423 2828
3423 2537
3423 130
3422 9591
3422 2489
3422 502
3422 91
3421 9832
3421 8996
3421 7074
3421 863
3421 134
3421 16
3420 7775
3420 4380
3420 4333
3420 2842
3420 2399
3420 1663
3419 4571
3419 2812
3419 442
3419 4
3418 3959
3418 1942
3418 297
3418 69
3417 2791
3417 1602
3417 5
3416 9519
3416 7267
3416 6243
3416 3831
3416 1311
3416 708
3416 400
3415 7367
3415 5970
3415 1682
3415 653
3415 104
3414 9947
3414 9885
3414 7621
3414 7439
3414 7326
3414 5197
3414 4099
3414 248
3414 45
3414 0
3413 6066
3413 922
3413 657
3413 514
3412 8844
3412 8816
3412 2689
3412 1803
3412 20
3411 7353
3411 6223
3411 1306
3411 963
3411 193
3410 4373
3410 4239
3410 743
3410 471
3410 383
3409 6962
3409 2314
3409 1779
3409 228
3408 9627
3408 4348
3408 1079
3408 691
3408 426
3407 1841
3407 210
3407 122
3406 8330
3406 1636
3406 1382
3406 1377
3405 8732
3405 8048
3405 5511
3405 5366
3405 3493
3405 3063
3405 2014
3405 937
3404 8613
3404 5584
3404 3127
3404 323
3404 3
3403 1159
3403 270
3403 187
3402 3128
3402 806
3402 23
3401 3306
3401 939
3401 3
3400 4399
3400 2303
3400 696
3400 297
3399 8667
3399 6026
3399 4899
3399 4455
3399 2025
3399 1490
3399 20
3398 8633
3398 7850
3398 3806
3398 929
3398 616
3398 19
3397 1475
3397 688
3397 297
3396 7366
3396 3583
3396 3582
3396 2577
3396 2575
3396 826
3395 7700
3395 5695
3395 1633
3395 381
3395 240
3394 6253
3394 1538
3394 984
3394 616
3393 4648
3393 1485
3393 255
3393 211
3392 1962
3392 89
3392 4
3391 1396
3391 1171
3391 732
3390 7777
3390 7749
3390 7626
3390 5667
3390 3970
3390 3849
3390 1886
3390 1216
3390 1158
3389 6728
3389 6163
3389 6052
3389 5733
3389 5701
3389 3770
3389 523
3389 3
3389 2
3388 5527
3388 4765
3388 1330
3388 995
3388 41
3387 1957
3387 1903
3387 650
3386 6611
3386 4619
3386 4155
3386 4123
3386 1531
3386 98
3386 8
3385 7685
3385 5403
3385 2574
3385 74
3385 39
3384 3790
3384 416
3384 151
3384 10
3383 9389
3383 7874
3383 2999
3383 2743
3383 2185
3382 661
3382 314
3382 124
3381 8328
3381 6639
3381 6406
3381 5108
3381 4907
3381 4639
3381 3947
3381 2483
3381 2039
3381 1627
3380 3140
3380 110
3380 27
3379 1341
3379 932
3379 702
3378 9165
3378 8021
3378 5434
3378 2434
3378 1387
3378 52
3377 2110
3377 1950
3377 290
3376 5860
3376 4466
3376 4007
3376 2574
3376 426
3376 20
3375 9794
3375 7325
3375 2936
3375 1996
3375 1676
3374 9875
3374 8583
3374 8133
3374 5699
3374 5081
3374 2767
3374 457
3374 386
3373 6610
3373 5867
3373 342
3373 77
3373 20
3372 5968
3372 403
3372 321
3372 0
3371 5834
3371 2260
3371 1667
3371 65
3370 2061
3370 199
3370 5
3369 2173
3369 1095
3369 45
3368 9695
3368 9350
3368 4104
3368 3888
3368 3704
3368 3328
3368 1729
3368 59
3367 5997
3367 2936
3367 2031
3367 5
3366 3658
3366 3162
3366 2294
3366 140
3365 5617
3365 3890
3365 3783
3365 2179
3365 1079
3365 0
3364 7528
3364 6231
3364 2344
3364 751
3364 6
3363 7279
3363 1984
3363 1057
3363 474
3362 7759
3362 5385
3362 3308
3362 3012
3362 315
3361 9079
3361 1407
3361 739
3361 184
3360 4755
3360 4513
3360 89
3360 61
3360 33
3359 9264
3359 2052
3359 72
3359 52
3358 6750
3358 5810
3358 2005
3358 780
3358 14
3357 6894
3357 3154
3357 633
3357 241
3356 7631
3356 2522
3356 1598
3356 66
3355 9613
3355 7453
3355 2464
3355 1304
3355 289
3354 4218
3354 3736
3354 2682
3354 1427
3354 328
3353 2148
3353 463
3353 23
3352 9218
3352 9098
3352 8966
3352 8678
3352 7803
3352 7485
3352 6565
3352 4764
3352 1346
3352 1029
3352 384
3351 9762
3351 1093
3351 917
3351 380
3350 9468
3350 3886
3350 728
3350 464
3350 166
3349 5137
3349 2918
3349 458
3349 84
3348 8125
3348 5521
3348 4772
3348 578
3348 240
3348 74
3347 1102
3347 698
3347 452
3346 4586
3346 3047
3346 872
3346 634
3345 9577
3345 6359
3345 1423
3345 783
3345 104
3344 1179
3344 1048
3344 299
3343 9263
3343 7309
3343 6316
3343 2087
3343 237
3343 226
3342 697
3342 199
3342 46
3341 2446
3341 851
3341 782
3340 9911
3340 9091
3340 6702
3340 4973
3340 4533
3340 3871
3340 2591
3340 1239
3340 645
3339 7674
3339 7225
3339 5930
3339 5168
3339 5071
3339 2938
3339 1720
3339 189
3338 8547
3338 2804
3338 1930
3338 890
3337 7468
3337 7141
3337 4336
3337 3632
3337 2935
3337 2189
3337 252
3336 6456
3336 6360
3336 6315
3336 3248
3336 2205
3336 284
3335 9842
3335 7081
3335 6604
3335 6382
3335 4302
3335 4087
3335 2023
3335 1389
3335 7
3334 8829
3334 5563
3334 3680
3334 3097
3334 2223
3334 1820
3333 4279
3333 3436
3333 2426
3333 1831
3333 1786
3332 9655
3332 8841
3332 7810
3332 1214
3332 585
3332 28
3331 7264
3331 5300
3331 3179
3331 3008
3331 1877
3330 7388
3330 947
3330 570
3330 18
3329 9863
3329 8137
3329 7093
3329 6623
3329 4048
3329 3307
3329 2135
3329 1206
3328 9782
3328 9729
3328 6123
3328 3368
3328 2633
3328 871
3328 140
3327 5215
3327 5019
3327 2515
3327 601
3327 172
3326 5143
3326 1872
3326 93
3326 10
3325 7966
3325 1475
3325 1079
3325 1002
3324 4978
3324 3480
3324 680
3324 37
3324 7
3323 9550
3323 4770
3323 4286
3323 3162
3323 809
3323 733
3322 2625
3322 2025
3322 193
3321 3083
3321 2843
3321 2829
3320 9619
3320 1892
3320 735
3320 10
3319 8382
3319 7039
3319 6676
3319 6012
3319 5355
3319 4432
3319 4088
3319 1100
3319 617
3319 187
3318 1742
3318 202
3318 113
3317 1347
3317 558
3317 178
3316 9085
3316 7783
3316 7754
3316 7221
3316 4297
3316 2538
3316 1401
3316 683
3315 5854
3315 5765
3315 2197
3315 841
3315 323
3314 4823
3314 1199
3314 870
3314 3
3313 8167
3313 3143
3313 2354
3313 2230
3312 5216
3312 5115
3312 2843
3312 416
3312 263
3311 9998
3311 9370
3311 8059
3311 7598
3311 4270
3311 1997
3311 177
3311 52
3310 7570
3310 5575
3310 4205
3310 3709
3310 1513
3310 1503
3310 612
3309 8683
3309 3961
3309 303
3309 244
3309 200
3308 3769
3308 3362
3308 2164
3308 986
3308 153
3307 8761
3307 8715
3307 8562
3307 8322
3307 7379
3307 7255
3307 4303
3307 3329
3307 3149
3307 470
3307 33
3306 7663
3306 7585
3306 5698
3306 3401
3306 2052
3306 305
3306 135
3305 2642
3305 611
3305 145
3304 9134
3304 8494
3304 8387
3304 7610
3304 5011
3304 2802
3304 1949
3304 1252
3303 4153
3303 3116
3303 2020
3303 764
3302 1803
3302 1045
3302 702
3301 7522
3301 5919
3301 2830
3301 1404
3301 705
3300 7285
3300 5079
3300 3258
3300 1656
3300 1198
3299 8322
3299 6888
3299 5615
3299 2393
3299 2048
3299 827
3298 6067
3298 5549
3298 2162
3298 608
3298 487
3297 682
3297 156
3297 81
3296 8688
3296 7902
3296 3877
3296 3764
3296 258
3296 239
3296 32
3295 9401
3295 5371
3295 3827
3295 3073
3295 2470
3295 1134
3294 3072
3294 2161
3294 523
3293 7657
3293 5649
3293 3105
3293 2428
3293 10
3292 9501
3292 8793
3292 8759
3292 4072
3292 2989
3292 2681
3292 476
3291 9149
3291 9089
3291 2094
3291 1647
3291 803
3290 2191
3290 1836
3290 1070
3289 9584
3289 8947
3289 2426
3289 140
3289 117
3288 8456
3288 6607
3288 2198
3288 191
3288 33
3287 8824
3287 6141
3287 1971
3287 1936
3287 1855
3286 9803
3286 9157
3286 8142
3286 7407
3286 6863
3286 4049
3286 3927
3286 3536
3286 3246
3286 2959
3286 2467
3285 415
3285 301
3285 0
3284 9967
3284 7097
3284 3832
3284 2173
3284 2162
3284 1170
3283 9170
3283 5592
3283 4108
3283 630
3283 416
3283 55
3282 8835
3282 8306
3282 8073
3282 6545
3282 5085
3282 4351
3282 3220
3282 1019
3282 89
3281 9574
3281 6172
3281 990
3281 884
3281 512
3280 8150
3280 5457
3280 3599
3280 1866
3280 94
3280 10
3279 9012
3279 5581
3279 3501
3279 1729
3279 678
3279 6
3278 8308
3278 956
3278 149
3278 13
3277 9901
3277 7795
3277 5356
3277 182
3277 156
3277 19
3276 9893
3276 6566
3276 5961
3276 4461
3276 4426
3276 2188
3276 939
3276 4
3275 9292
3275 8847
3275 8222
3275 8185
3275 5742
3275 3606
3275 1061
3275 202
3275 5
3274 9133
3274 6455
3274 4011
3274 3108
3274 2133
3274 18
3273 4337
3273 1842
3273 1476
3273 178
3272 5471
3272 1663
3272 1492
3272 162
3271 6278
3271 5883
3271 776
3271 684
3271 343
3270 9835
3270 6409
3270 5944
3270 4442
3270 3563
3270 2576
3270 2521
3270 1909
3269 6630
3269 4977
3269 2711
3269 1237
3269 350
3268 388
3268 142
3268 95
3267 9494
3267 4484
3267 1398
3267 783
3267 290
3266 5357
3266 4304
3266 4118
3266 853
3266 150
3266 31
3265 2009
3265 1012
3265 2
3264 786
3264 690
3264 27
3263 8999
3263 8554
3263 8384
3263 6557
3263 3668
3263 391
3263 77
3263 10
3262 3482
3262 2096
3262 430
3262 125
3261 7527
3261 5935
3261 4909
3261 4864
3261 3433
3261 502
3261 70
3261 2
3260 9556
3260 4925
3260 790
3260 381
3260 6
3259 7454
3259 6688
3259 6073
3259 5169
3259 4666
3259 3771
3259 3695
3259 3202
3259 2682
3259 26
3258 7238
3258 5297
3258 5213
3258 3804
3258 3300
3258 1341
3258 304
3258 182
3257 7739
3257 5911
3257 1577
3257 1237
3257 7
3256 7847
3256 4449
3256 2048
3256 1059
3256 534
3255 7202
3255 4460
3255 1265
3255 478
3255 203
3254 2914
3254 1298
3254 481
3253 6481
3253 4520
3253 963
3253 261
3253 67
3252 7036
3252 5610
3252 2754
3252 1520
3252 26
3251 4440
3251 2785
3251 1996
3251 558
3250 9667
3250 591
3250 178
3250 16
3249 9664
3249 4821
3249 3145
3249 2196
3249 963
3248 5829
3248 5818
3248 5581
3248 4931
3248 4813
3248 4731
3248 3336
3248 2401
3248 1083
3248 893
3247 7103
3247 6720
3247 5722
3247 4925
3247 417
3247 35
3247 18
3246 4393
3246 3286
3246 1340
3246 478
3246 7
3245 7922
3245 7705
3245 3027
3245 2979
3245 634
3244 9412
3244 2227
3244 775
3244 611
3243 7065
3243 4828
3243 4357
3243 775
3243 190
3243 100
3242 5628
3242 5597
3242 4610
3242 4349
3242 3759
3242 3580
3242 1520
3242 634
3242 310
3241 8824
3241 8675
3241 5653
3241 4583
3241 3613
3241 1172
3241 861
3241 55
3240 8416
3240 4257
3240 1335
3240 602
3240 599
3239 3731
3239 2241
3239 838
3239 119
3238 9594
3238 7593
3238 6142
3238 5376
3238 5205
3238 3732
3238 262
3238 193
3238 23
3237 1616
3237 140
3237 13
3236 6596
3236 3527
3236 1949
3236 1648
3236 23
3235 2282
3235 461
3235 38
3234 1195
3234 140
3234 52
3233 8949
3233 7032
3233 5818
3233 4586
3233 2898
3233 827
3233 442
3232 6442
3232 1791
3232 1366
3232 224
3231 9928
3231 6327
3231 2386
3231 698
3231 169
3230 8066
3230 3743
3230 2883
3230 1682
3230 1279
3229 6732
3229 5502
3229 4811
3229 2625
3229 2079
3229 345
3228 9182
3228 8355
3228 8042
3228 4196
3228 1970
3228 690
3228 156
3227 7990
3227 7309
3227 5785
3227 2843
3227 53
3227 45
3226 3673
3226 926
3226 353
3226 207
3225 7455
3225 1294
3225 1127
3225 164
3224 4746
3224 3983
3224 1133
3224 662
3224 224
3223 8193
3223 6525
3223 4832
3223 4698
3223 2306
3223 1948
3223 43
3222 9606
3222 9311
3222 8914
3222 8843
3222 7553
3222 4244
3222 2024
3222 1358
3222 55
3221 8617
3221 8363
3221 6803
3221 5371
3221 4526
3221 3572
3221 1639
3221 525
3221 478
3220 3282
3220 3200
3220 1883
3220 1041
3219 1512
3219 183
3219 89
3218 6990
3218 6568
3218 2949
3218 1496
3218 996
3217 9258
3217 8929
3217 7754
3217 6292
3217 4599
3217 2718
3217 883
3217 512
3216 5988
3216 3880
3216 880
3216 32
3216 16
3215 9124
3215 8175
3215 6656
3215 4070
3215 3963
3215 1521
3215 1135
3215 4
3214 7408
3214 5172
3214 3060
3214 1676
3214 360
3213 6876
3213 6643
3213 5497
3213 5458
3213 3867
3213 2106
3213 370
3213 325
3212 2326
3212 35
3212 11
3211 8252
3211 7934
3211 7353
3211 5368
3211 5300
3211 3859
3211 1691
3211 1189
3211 150
3210 6949
3210 6132
3210 5001
3210 3836
3210 2692
3210 577
3210 127
3209 7935
3209 3711
3209 2035
3209 1729
3209 166
3208 7955
3208 1377
3208 192
3208 130
3207 4226
3207 4088
3207 1573
3207 806
3207 27
3206 7251
3206 6377
3206 6333
3206 5829
3206 5435
3206 2510
3206 574
3206 239
3205 9552
3205 8939
3205 5454
3205 1839
3205 675
3205 237
3204 7676
3204 6098
3204 4963
3204 4640
3204 4632
3204 2953
3204 783
3204 332
3203 9437
3203 1448
3203 623
3203 39
3202 6467
3202 6010
3202 5991
3202 4308
3202 3259
3202 3189
3202 2077
3202 1427
3201 7395
3201 1987
3201 599
3201 0
3200 9654
3200 4353
3200 3220
3200 1313
3200 736
3200 138
3199 9982
3199 9212
3199 8871
3199 5875
3199 2001
3199 1722
3199 97
3198 2386
3198 1706
3198 190
3197 8969
3197 8044
3197 3787
3197 734
3197 416
3197 107
3196 1885
3196 1639
3196 458
3195 8843
3195 956
3195 38
3195 16
3194 2805
3194 367
3194 14
3193 4458
3193 2364
3193 1623
3193 222
3192 6053
3192 2753
3192 1655
3192 392
3191 1345
3191 1264
3191 249
3190 6453
3190 4245
3190 2391
3190 1754
3190 1130
3189 5836
3189 4225
3189 3202
3189 1893
3189 895
3189 200
3188 2946
3188 376
3188 61
3187 9693
3187 733
3187 518
3187 169
3186 9492
3186 9061
3186 6079
3186 6056
3186 4006
3186 2374
3186 2304
3186 851
3185 9866
3185 9537
3185 9166
3185 9041
3185 8619
3185 5432
3185 5392
3185 4519
3185 2432
3185 1393
3185 518
3184 9393
3184 7700
3184 7344
3184 6940
3184 6288
3184 2232
3184 454
3184 65
3183 5417
3183 2166
3183 1710
3183 60
3182 5833
3182 4831
3182 4782
3182 4327
3182 3796
3182 3435
3182 93
3182 61
3182 29
3181 4834
3181 775
3181 508
3181 170
3180 8682
3180 5769
3180 4722
3180 2750
3180 1369
3180 236
3179 6519
3179 5050
3179 4646
3179 3331
3179 2483
3179 286
3179 193
3178 8236
3178 2218
3178 1941
3178 200
3177 2790
3177 2054
3177 259
3176 7634
3176 4544
3176 3968
3176 1916
3176 1423
3176 234
3175 9358
3175 4660
3175 3488
3175 691
3175 458
3175 11
3174 6667
3174 3834
3174 2923
3174 1125
3174 513
3173 7273
3173 6386
3173 4569
3173 3913
3173 612
3173 603
3173 19
3172 7968
3172 6169
3172 2780
3172 482
3172 255
3171 9558
3171 9517
3171 6574
3171 5785
3171 4858
3171 2052
3171 306
3171 193
3170 9783
3170 8161
3170 5080
3170 1562
3170 1376
3170 9
3169 1155
3169 520
3169 9
3168 4854
3168 927
3168 390
3168 383
3167 1564
3167 505
3167 7
3166 9969
3166 5003
3166 2686
3166 587
3166 356
3165 3600
3165 2813
3165 683
3165 45
3164 8484
3164 7380
3164 6971
3164 6269
3164 5582
3164 2335
3164 2151
3164 69
3163 8267
3163 6548
3163 4605
3163 3870
3163 2609
3163 1016
3163 447
3162 9034
3162 6703
3162 3366
3162 3323
3162 466
3162 69
3162 19
3161 8396
3161 5678
3161 4597
3161 2403
3161 2313
3161 244
3160 7397
3160 6494
3160 4027
3160 1231
3160 470
3160 55
3159 9285
3159 7486
3159 6709
3159 5536
3159 4497
3159 3635
3159 2977
3159 2212
3159 1282
3158 9010
3158 8611
3158 8137
3158 4599
3158 3959
3158 476
3158 128
3158 7
3157 9089
3157 600
3157 511
3157 247
3156 2873
3156 2779
3156 1794
3155 5385
3155 4801
3155 2715
3155 315
3155 74
3154 9880
3154 8560
3154 8491
3154 8262
3154 7741
3154 7398
3154 5261
3154 3357
3154 860
3154 632
3154 282
3153 7194
3153 7058
3153 6926
3153 4370
3153 3917
3153 2005
3153 785
3153 11
3152 9481
3152 1591
3152 1335
3152 1301
3151 9632
3151 7518
3151 2896
3151 163
3151 140
3150 9722
3150 9217
3150 7347
3150 5740
3150 1264
3150 1242
3150 866
3149 3307
3149 2865
3149 2269
3149 1243
3148 5828
3148 5189
3148 4577
3148 2652
3148 678
3148 38
3147 5732
3147 5282
3147 4251
3147 2487
3147 2169
3147 122
3146 4087
3146 645
3146 345
3146 225
3145 9970
3145 9661
3145 7124
3145 4730
3145 4294
3145 4174
3145 3249
3145 1891
3145 225
3145 213
3144 8538
3144 5301
3144 759
3144 636
3144 15
3143 3313
3143 2058
3143 795
3143 23
3142 2649
3142 246
3142 11
3141 1287
3141 551
3141 381
3140 3380
3140 2869
3140 2535
3140 1581
3139 8512
3139 6460
3139 5882
3139 5880
3139 4647
3139 1797
3139 718
3139 67
3138 5723
3138 3124
3138 1601
3138 1223
3137 8189
3137 6624
3137 6397
3137 5731
3137 5061
3137 4256
3137 2937
3137 1658
3137 1329
3136 8162
3136 2829
3136 677
3136 386
3135 5058
3135 3785
3135 2805
3135 2091
3135 683
3134 2978
3134 1110
3134 120
3133 6037
3133 1715
3133 1257
3133 124
3132 9940
3132 5585
3132 5295
3132 5244
3132 4785
3132 2621
3132 2164
3132 65
3131 6024
3131 3995
3131 3863
3131 1553
3131 937
3131 380
3130 8929
3130 8660
3130 8163
3130 7180
3130 6652
3130 3943
3130 3809
3130 3730
3130 2102
3130 1400
3130 379
3129 9172
3129 8620
3129 6983
3129 6568
3129 5908
3129 5720
3129 5702
3129 5513
3129 4781
3129 4206
3129 3533
3129 213
3129 14
3129 12
3128 8182
3128 6323
3128 4939
3128 3402
3128 1471
3128 1460
3128 4
3127 9747
3127 9459
3127 9146
3127 8209
3127 7588
3127 5498
3127 4058
3127 3696
3127 3452
3127 3404
3127 1594
3127 1250
3127 748
3126 1265
3126 69
3126 7
3125 1127
3125 889
3125 577
3124 6293
3124 6279
3124 5292
3124 3984
3124 3138
3124 2426
3124 787
3124 50
3123 7470
3123 6903
3123 5873
3123 5325
3123 393
3123 135
3123 92
3122 2935
3122 1970
3122 1331
3121 3780
3121 1551
3121 932
3121 33
3120 7437
3120 2653
3120 200
3120 30
3119 7952
3119 5693
3119 4918
3119 1172
3119 795
3119 307
3118 9464
3118 6598
3118 5089
3118 1983
3118 1892
3118 1672
3117 9403
3117 8416
3117 7894
3117 5000
3117 4293
3117 2458
3117 2034
3117 591
3116 3303
3116 1723
3116 441
3116 6
3115 7142
3115 4138
3115 792
3115 567
3115 74
3114 6681
3114 4615
3114 815
3114 233
3114 135
3113 7367
3113 4028
3113 1338
3113 72
3113 12
3112 1779
3112 1699
3112 1577
3111 9197
3111 7992
3111 6487
3111 5717
3111 1318
3111 866
3111 124
3110 9758
3110 8413
3110 2245
3110 1393
3110 999
3109 7060
3109 5954
3109 4264
3109 3436
3109 1369
3109 861
3109 99
3108 3808
3108 3660
3108 3274
3108 566
3108 61
3108 0
3107 4894
3107 2861
3107 246
3107 72
3106 5388
3106 1674
3106 203
3106 159
3105 8894
3105 5846
3105 5345
3105 3293
3105 696
3105 539
3105 413
3104 6627
3104 494
3104 202
3104 17
3103 4336
3103 3540
3103 2151
3103 59
3103 6
3102 7950
3102 3517
3102 2330
3102 2250
3102 49
3101 7330
3101 5891
3101 740
3101 692
3101 381
3100 9600
3100 6998
3100 5905
3100 5398
3100 5006
3100 4585
3100 1779
3100 1653
3100 883
3099 9566
3099 9230
3099 6139
3099 5406
3099 4977
3099 3624
3099 2041
3099 449
3099 166
3098 2236
3098 304
3098 33
3097 6165
3097 4979
3097 4714
3097 4657
3097 3334
3097 977
3097 63
3097 2
3096 7078
3096 5615
3096 5220
3096 3643
3096 2940
3096 2170
3096 952
3095 2315
3095 1053
3095 337
3094 9169
3094 3861
3094 2925
3094 2593
3094 72
3093 9699
3093 1169
3093 648
3093 184
3092 2820
3092 1844
3092 9
3091 2003
3091 1587
3091 438
3090 2574
3090 192
3090 135
3089 1955
3089 1708
3089 0
3088 8835
3088 6081
3088 2649
3088 110
3088 27
3087 9783
3087 6308
3087 5607
3087 2379
3087 1974
3087 756
3086 6782
3086 5999
3086 4216
3086 3527
3086 2181
3086 1948
3086 1036
3085 6705
3085 4921
3085 4838
3085 2679
3085 1500
3085 256
3084 7099
3084 6781
3084 5851
3084 5678
3084 3593
3084 565
3084 100
3084 43
3083 4543
3083 3321
3083 472
3083 411
3083 117
3082 9700
3082 9507
3082 9341
3082 7719
3082 6305
3082 4947
3082 4628
3082 4388
3082 2449
3082 1866
3082 442
3081 9589
3081 6310
3081 5703
3081 5477
3081 4307
3081 4172
3081 55
3081 26
3081 4
3080 7778
3080 2039
3080 502
3080 30
3079 6331
3079 2035
3079 461
3079 80
3078 7480
3078 5488
3078 1192
3078 346
3078 135
3077 5733
3077 5114
3077 4576
3077 3466
3077 2541
3077 1660
3077 369
3076 9497
3076 1177
3076 127
3076 32
3075 9926
3075 6206
3075 1246
3075 1237
3075 935
3074 9223
3074 8157
3074 8039
3074 5988
3074 3642
3074 1674
3074 434
3074 174
3073 9558
3073 8948
3073 4435
3073 3537
3073 3295
3073 1634
3073 844
3073 4
3072 3294
3072 2119
3072 564
3072 7
3071 7991
3071 7453
3071 6869
3071 3754
3071 876
3071 111
3071 9
3070 9046
3070 8240
3070 3828
3070 1262
3070 522
3070 499
3069 2150
3069 438
3069 19
3068 5712
3068 2688
3068 1294
3068 616
3067 6089
3067 4456
3067 4282
3067 2352
3067 1250
3067 1027
3066 5940
3066 2531
3066 832
3066 653
3065 9451
3065 2302
3065 1993
3065 824
3064 3989
3064 2634
3064 591
3064 107
3063 9845
3063 9349
3063 4277
3063 3405
3063 1283
3063 1069
3063 52
3062 9458
3062 8738
3062 2786
3062 366
3062 39
3061 2693
3061 1604
3061 727
3060 9660
3060 9625
3060 8040
3060 4746
3060 3214
3060 871
3060 865
3060 203
3059 9872
3059 7731
3059 5621
3059 5550
3059 5248
3059 4150
3059 2164
3059 809
3059 15
3058 9950
3058 4942
3058 1587
3058 1090
3058 518
3057 9362
3057 9255
3057 7825
3057 6241
3057 5895
3057 5044
3057 4997
3057 4843
3057 4779
3057 4590
3057 3582
3057 1171
3057 592
3057 444
3056 6620
3056 6031
3056 4352
3056 2345
3056 2202
3056 55
3055 9450
3055 8022
3055 2262
3055 2204
3055 4
3054 9687
3054 9677
3054 9040
3054 8622
3054 7865
3054 7479
3054 6013
3054 4720
3054 1458
3054 984
3054 536
3053 2398
3053 241
3053 29
3052 720
3052 286
3052 203
3051 6556
3051 4481
3051 4289
3051 1252
3051 926
3051 1
3050 6778
3050 6207
3050 4663
3050 2061
3050 88
3050 51
3049 7366
3049 6777
3049 6539
3049 5389
3049 3427
3049 2732
3049 1897
3049 1164
3048 9297
3048 4962
3048 4074
3048 1753
3048 1248
3048 7
3047 9888
3047 7961
3047 7636
3047 5599
3047 3511
3047 3346
3047 182
3047 97
3047 38
3046 4320
3046 30
3046 7
3046 3
3045 7946
3045 4978
3045 3718
3045 1685
3045 1412
3045 0
3044 2127
3044 1670
3044 14
3043 8349
3043 8076
3043 3758
3043 2636
3043 1935
3043 84
3042 2113
3042 408
3042 157
3041 5169
3041 303
3041 260
3041 33
3040 6125
3040 5262
3040 2855
3040 2515
3040 18
3039 9644
3039 5372
3039 1815
3039 357
3039 66
3038 1203
3038 1019
3038 20
3037 2313
3037 1118
3037 402
3036 5514
3036 2730
3036 2540
3036 1008
3035 8673
3035 4475
3035 2168
3035 1281
3035 687
3034 4908
3034 2010
3034 577
3034 45
3033 9973
3033 8944
3033 2360
3033 1248
3033 77
3032 9795
3032 5767
3032 4447
3032 4214
3032 3446
3032 636
3032 229
3032 100
3031 8050
3031 4762
3031 4432
3031 1433
3031 113
3031 6
3030 5076
3030 4144
3030 3660
3030 2612
3030 855
3030 5
3029 9427
3029 8457
3029 843
3029 627
3029 5
3028 2225
3028 1333
3028 478
3027 8068
3027 7054
3027 6881
3027 4827
3027 3245
3027 534
3027 320
3027 117
3026 956
3026 719
3026 354
3025 1204
3025 551
3025 239
3024 4557
3024 1843
3024 324
3024 31
3023 9359
3023 2349
3023 613
3023 141
3022 9737
3022 5855
3022 5525
3022 4700
3022 4360
3022 1758
3022 246
3022 3
3021 8489
3021 2424
3021 1875
3021 3
3020 2812
3020 184
3020 0
3019 9898
3019 4792
3019 1836
3019 1577
3019 132
3018 9467
3018 2303
3018 867
3018 253
3017 9273
3017 7494
3017 4593
3017 4503
3017 2747
3017 2364
3017 1164
3016 7359
3016 5685
3016 5464
3016 5103
3016 4408
3016 3917
3016 2282
3016 351
3016 207
3015 9258
3015 7023
3015 4113
3015 988
3015 527
3015 280
3014 9001
3014 7141
3014 5242
3014 622
3014 572
3014 17
3013 9580
3013 7517
3013 3503
3013 3487
3013 1615
3013 594
3013 134
3012 9014
3012 4175
3012 3362
3012 1269
3012 678
3012 39
3011 5449
3011 4581
3011 839
3011 52
3011 0
3010 9368
3010 6305
3010 2896
3010 538
3010 79
3009 927
3009 325
3009 32
3008 7260
3008 5779
3008 4882
3008 3331
3008 2409
3008 708
3008 38
3007 9009
3007 8919
3007 7678
3007 5467
3007 5136
3007 4936
3007 3903
3007 356
3007 119
3007 7
3006 8443
3006 6741
3006 6703
3006 6604
3006 2700
3006 752
3006 107
3005 8904
3005 7255
3005 5889
3005 4829
3005 4450
3005 3672
3005 3618
3005 2088
3005 888
3005 437
3004 1996
3004 1542
3004 1380
3003 8472
3003 8233
3003 7869
3003 7317
3003 4841
3003 3767
3003 1341
3003 1105
3003 0
3002 2484
3002 2293
3002 132
3001 166
3001 140
3001 0
3000 3741
3000 1241
3000 290
3000 184
2999 9303
2999 3383
2999 1112
2999 512
2999 88
2998 6402
2998 6306
2998 1970
2998 1767
2998 594
2997 7699
2997 4793
2997 3800
2997 3470
2997 542
2997 532
2997 358
2996 4861
2996 1639
2996 198
2996 90
2995 5861
2995 4033
2995 181
2995 9
2995 7
2994 1794
2994 608
2994 312
2993 4043
2993 3433
2993 2005
2993 1936
2993 434
2992 7059
2992 5906
2992 4220
2992 3633
2992 553
2992 83
2992 41
2991 9900
2991 2015
2991 273
2991 3
2990 9037
2990 7241
2990 6968
2990 3701
2990 3587
2990 1568
2990 1491
2990 74
2989 9868
2989 9263
2989 8695
2989 8649
2989 6902
2989 6240
2989 4089
2989 3292
2989 2149
2989 239
2989 213
2988 8546
2988 7490
2988 2539
2988 262
2988 6
2987 1271
2987 343
2987 157
2986 9772
2986 1512
2986 339
2986 5
2985 4396
2985 4337
2985 1333
2985 184
2985 102
2984 6511
2984 5438
2984 4169
2984 1914
2984 1490
2984 492
2983 8504
2983 6222
2983 4468
2983 3967
2983 2001
2983 895
2983 712
2982 4694
2982 3942
2982 3883
2982 3855
2982 2435
2982 429
2982 72
2981 8636
2981 2258
2981 1409
2981 201
2980 9044
2980 7663
2980 6942
2980 5083
2980 4389
2980 1621
2980 360
2980 4
2979 3245
2979 1226
2979 589
2979 43
2978 9618
2978 7543
2978 7062
2978 4699
2978 4422
2978 4273
2978 3134
2978 2566
2978 697
2978 413
2977 9860
2977 6455
2977 4191
2977 3159
2977 2192
2977 1375
2977 12
2976 6020
2976 5062
2976 4274
2976 2491
2976 156
2976 7
2975 6123
2975 5453
2975 4523
2975 1949
2975 1650
2975 1099
2974 9664
2974 9465
2974 8214
2974 5256
2974 5057
2974 4926
2974 4282
2974 186
2974 86
2974 13
2973 8884
2973 1938
2973 917
2973 5
2972 4537
2972 2599
2972 2082
2972 803
2971 6810
2971 5006
2971 824
2971 474
2971 122
2970 97
2970 16
2970 6
2969 6508
2969 5603
2969 1971
2969 24
2969 7
2968 9231
2968 7958
2968 7422
2968 7263
2968 6271
2968 5747
2968 5371
2968 5058
2968 4470
2968 1388
2968 198
2968 52
2967 7051
2967 7040
2967 3868
2967 2862
2967 2252
2967 681
2966 2874
2966 644
2966 97
2965 8483
2965 7880
2965 7739
2965 6742
2965 4476
2965 4058
2965 2042
2965 93
2965 25
2964 5562
2964 4954
2964 2960
2964 653
2964 324
2963 6230
2963 5759
2963 5102
2963 4009
2963 655
2963 411
2963 400
2962 8943
2962 6641
2962 6391
2962 5027
2962 2773
2962 1630
2962 583
2961 7830
2961 1082
2961 77
2961 4
2960 5083
2960 2964
2960 2207
2960 608
2960 541
2959 8569
2959 4123
2959 3286
2959 2710
2959 2410
2959 1341
2958 9918
2958 7770
2958 708
2958 77
2958 68
2957 1826
2957 1050
2957 917
2956 5570
2956 5152
2956 858
2956 247
2956 49
2955 2428
2955 370
2955 0
2954 5928
2954 2742
2954 1131
2954 386
2953 9067
2953 8959
2953 8199
2953 3204
2953 2178
2953 1770
2953 1028
2952 8453
2952 5082
2952 4291
2952 790
2952 735
2952 140
2951 2269
2951 260
2951 7
2950 7941
2950 2155
2950 826
2950 117
2949 7597
2949 6590
2949 6361
2949 3218
2949 1897
2949 1494
2949 1263
2948 9024
2948 4850
2948 3496
2948 1338
2948 1000
2948 673
2947 1610
2947 1442
2947 551
2946 8138
2946 5775
2946 4266
2946 3188
2946 2463
2946 885
2946 667
2945 8542
2945 6713
2945 6054
2945 5668
2945 2814
2945 2689
2945 1869
2944 2038
2944 1308
2944 457
2943 5693
2943 671
2943 559
2943 5
2942 7241
2942 6134
2942 5687
2942 1675
2942 847
2942 16
2941 9784
2941 6734
2941 5789
2941 5602
2941 5007
2941 4750
2941 3463
2941 2544
2941 1770
2941 1611
2940 9331
2940 8512
2940 4709
2940 3096
2940 2037
2940 1220
2940 127
2939 7646
2939 6548
2939 5874
2939 5035
2939 2719
2939 2001
2939 1570
2938 9731
2938 5332
2938 5114
2938 4980
2938 4902
2938 3339
2938 1508
2938 1136
2938 252
2937 6238
2937 4323
2937 3137
2937 1794
2937 385
2937 193
2936 8279
2936 8031
2936 7502
2936 7027
2936 6585
2936 4829
2936 4671
2936 3749
2936 3518
2936 3375
2936 3367
2936 1153
2936 588
2936 7
2935 9554
2935 9243
2935 8831
2935 8612
2935 5496
2935 4250
2935 3337
2935 3122
2935 2760
2935 1481
2935 116
2934 8217
2934 6125
2934 3721
2934 2161
2934 1082
2934 841
2933 9136
2933 3795
2933 2661
2933 1658
2933 507
2932 6965
2932 1307
2932 323
2932 295
2931 8664
2931 7988
2931 7136
2931 4269
2931 2174
2931 1669
2931 338
2930 9041
2930 7546
2930 4724
2930 4333
2930 654
2930 292
2930 6
2929 2078
2929 1385
2929 1325
2928 9381
2928 8148
2928 7305
2928 156
2928 63
2928 26
2927 7686
2927 4891
2927 2312
2927 667
2927 93
2926 6770
2926 1580
2926 363
2926 43
2925 8046
2925 6224
2925 5740
2925 4766
2925 4577
2925 3094
2925 2203
2925 856
2925 827
2924 6795
2924 3719
2924 1935
2924 1586
2924 1162
2923 9719
2923 8900
2923 3453
2923 3174
2923 1716
2923 1021
2923 20
2922 9320
2922 7251
2922 6831
2922 4283
2922 3651
2922 3621
2922 3612
2922 3604
2922 1358
2922 404
2922 169
2921 5002
2921 4760
2921 3992
2921 3458
2921 2833
2921 1694
2921 108
2920 7833
2920 4288
2920 3819
2920 772
2920 655
2920 508
2919 7718
2919 2911
2919 137
2919 7
2918 8904
2918 6793
2918 3349
2918 870
2918 144
2918 4
2917 8155
2917 828
2917 6
2917 4
2916 5591
2916 5274
2916 2493
2916 456
2916 88
2915 9786
2915 3553
2915 729
2915 137
2915 106
2914 7229
2914 7140
2914 5749
2914 3493
2914 3254
2914 1970
2914 638
2914 45
2913 7624
2913 6944
2913 1611
2913 520
2913 190
2912 6554
2912 4115
2912 2613
2912 290
2912 100
2911 5688
2911 3511
2911 2919
2911 210
2911 176
2911 59
2910 9407
2910 4450
2910 3875
2910 1257
2910 1020
2910 43
2909 1671
2909 1112
2909 639
2908 9818
2908 5507
2908 2774
2908 852
2908 18
2907 9503
2907 7776
2907 6719
2907 2682
2907 221
2907 89
2906 8994
2906 7375
2906 1882
2906 1359
2906 215
2905 2814
2905 920
2905 911
2904 9247
2904 8202
2904 4126
2904 2853
2904 2561
2904 1591
2903 7786
2903 6004
2903 5533
2903 4906
2903 4268
2903 2716
2903 1699
2903 52
2902 3532
2902 1374
2902 77
2902 54
2901 8112
2901 1837
2901 1583
2901 0
2900 2022
2900 225
2900 200
2899 7472
2899 4052
2899 3534
2899 1124
2899 762
2899 214
2898 3233
2898 2094
2898 959
2898 946
2897 2428
2897 1045
2897 141
2896 8797
2896 8198
2896 4413
2896 3768
2896 3151
2896 3010
2896 2483
2896 771
2896 568
2895 9071
2895 8434
2895 8228
2895 1824
2895 211
2895 177
2894 9443
2894 7127
2894 4662
2894 3483
2894 2159
2894 156
2894 45
2893 2044
2893 271
2893 110
2892 8962
2892 7791
2892 1691
2892 1669
2892 16
2891 6872
2891 995
2891 357
2891 9
2890 1890
2890 1449
2890 369
2889 9436
2889 7388
2889 5568
2889 1866
2889 1280
2889 49
2888 8760
2888 6605
2888 1602
2888 273
2888 3
2887 8672
2887 7244
2887 7119
2887 5179
2887 5178
2887 1209
2887 109
2887 0
2886 9431
2886 3677
2886 2116
2886 276
2886 164
2885 7190
2885 1393
2885 766
2885 98
2884 6122
2884 4612
2884 4425
2884 1866
2884 712
2884 7
2883 9434
2883 8404
2883 3230
2883 2682
2883 2107
2883 1107
2882 7165
2882 4153
2882 2197
2882 1627
2882 258
2881 9107
2881 6896
2881 6878
2881 4734
2881 4285
2881 1431
2881 414
2881 372
2880 7831
2880 6549
2880 2428
2880 411
2880 159
2879 5116
2879 1767
2879 1252
2879 178
2878 8377
2878 7664
2878 5535
2878 4860
2878 4045
2878 4009
2878 3598
2878 2448
2878 2032
2878 592
2877 2304
2877 445
2877 290
2876 8920
2876 6936
2876 5454
2876 1544
2876 490
2876 33
2875 4258
2875 3798
2875 2085
2875 55
2875 0
2874 8431
2874 6023
2874 2966
2874 1984
2874 1946
2874 1436
2873 9237
2873 8851
2873 8283
2873 5221
2873 3156
2873 1970
2873 285
2873 8
2872 1180
2872 422
2872 15
2871 6688
2871 6524
2871 5455
2871 4778
2871 4370
2871 4034
2871 3867
2871 3765
2871 825
2871 531
2871 84
2870 6931
2870 6775
2870 3848
2870 2813
2870 431
2870 316
2869 3642
2869 3140
2869 1098
2869 46
2869 24
2868 2188
2868 400
2868 149
2867 2336
2867 850
2867 653
2866 5428
2866 2793
2866 2777
2866 443
2865 7924
2865 6420
2865 3149
2865 2242
2865 1933
2865 841
2864 2404
2864 982
2864 386
2863 9809
2863 8201
2863 7756
2863 6381
2863 5545
2863 2665
2863 1615
2863 1083
2862 9937
2862 6039
2862 5247
2862 4165
2862 3681
2862 2967
2862 1863
2862 140
2862 105
2861 6221
2861 4850
2861 3107
2861 943
2861 901
2861 175
2860 9516
2860 9134
2860 5030
2860 1580
2860 1136
2860 1046
2859 8458
2859 7356
2859 3453
2859 1742
2859 304
2859 173
2858 4593
2858 644
2858 209
2858 172
2857 8535
2857 7815
2857 4636
2857 4439
2857 4416
2857 1920
2857 1162
2857 837
2856 1160
2856 565
2856 33
2855 9939
2855 9347
2855 8846
2855 7971
2855 7921
2855 7881
2855 7287
2855 7058
2855 6636
2855 6240
2855 5970
2855 5231
2855 5192
2855 3713
2855 3040
2855 2224
2855 1756
2855 353
2854 8758
2854 8253
2854 8171
2854 7746
2854 6275
2854 6249
2854 4966
2854 4341
2854 3599
2854 1032
2854 803
2854 550
2853 7438
2853 2904
2853 1866
2853 742
2853 60
2852 9188
2852 8854
2852 7764
2852 6267
2852 1768
2852 1099
2852 277
2851 9715
2851 6809
2851 6727
2851 6344
2851 5560
2851 5411
2851 3889
2851 917
2851 483
2851 256
2850 408
2850 103
2850 6
2849 2672
2849 274
2849 4
2848 9598
2848 1758
2848 346
2848 265
2847 6879
2847 3518
2847 2288
2847 802
2847 387
2846 1569
2846 958
2846 932
2845 3700
2845 2018
2845 141
2845 83
2844 2827
2844 15
2844 0
2843 9881
2843 8308
2843 8081
2843 6716
2843 5500
2843 5481
2843 5238
2843 5166
2843 4818
2843 4702
2843 4673
2843 4312
2843 4209
2843 3321
2843 3312
2843 3227
2843 2692
2843 2150
2843 1079
2842 5728
2842 4788
2842 3420
2842 1623
2842 717
2842 282
2841 7950
2841 7924
2841 5773
2841 4532
2841 1393
2841 126
2841 4
2840 3662
2840 833
2840 513
2840 301
2839 7563
2839 2352
2839 2089
2839 19
2838 5930
2838 2173
2838 1583
2838 15
2837 9025
2837 7785
2837 1301
2837 141
2837 68
2836 9189
2836 7271
2836 7221
2836 6501
2836 5348
2836 3992
2836 642
2836 41
2836 11
2835 5840
2835 2833
2835 845
2835 138
2834 8893
2834 4463
2834 2637
2834 369
2834 117
2833 8032
2833 6164
2833 5888
2833 2921
2833 2835
2833 2276
2833 981
2833 456
2832 6690
2832 691
2832 120
2832 7
2831 8678
2831 6330
2831 4502
2831 180
2831 38
2831 5
2830 8394
2830 6434
2830 5186
2830 3301
2830 1110
2830 15
2830 5
2829 8710
2829 8088
2829 6449
2829 5546
2829 3778
2829 3321
2829 3136
2829 2613
2829 1682
2829 660
2828 5313
2828 3423
2828 873
2828 328
2828 171
2827 7602
2827 6848
2827 2844
2827 1935
2827 399
2827 29
2826 8682
2826 4983
2826 1332
2826 489
2826 104
2825 4432
2825 1367
2825 510
2825 356
2824 7057
2824 2235
2824 946
2824 921
2823 4751
2823 4571
2823 2025
2823 934
2823 712
2822 774
2822 203
2822 110
2821 6058
2821 881
2821 619
2821 3
2820 4567
2820 3092
2820 1003
2820 849
2820 400
2819 9814
2819 8390
2819 6918
2819 6634
2819 5581
2819 826
2819 405
2819 386
2818 7683
2818 960
2818 900
2818 729
2817 8590
2817 6444
2817 6062
2817 304
2817 147
2817 27
2816 2239
2816 192
2816 7
2815 9277
2815 2566
2815 1136
2815 28
2814 5774
2814 2945
2814 2905
2814 285
2814 171
2814 49
2813 8347
2813 8138
2813 6877
2813 3165
2813 2870
2813 1625
2813 207
2813 72
2812 9994
2812 8589
2812 6650
2812 5441
2812 3468
2812 3419
2812 3020
2812 311
2812 265
2812 33
2811 7654
2811 2364
2811 369
2811 268
2810 1820
2810 591
2810 481
2809 5276
2809 5273
2809 4651
2809 2379
2809 1476
2809 987
2808 8642
2808 4859
2808 4155
2808 3949
2808 1525
2808 198
2808 0
2807 7549
2807 4664
2807 4067
2807 1376
2807 500
2807 102
2806 8852
2806 4464
2806 3439
2806 1257
2806 5
2806 2
2805 9844
2805 8445
2805 7399
2805 4874
2805 4694
2805 3194
2805 3135
2805 229
2805 220
2805 79
2804 8497
2804 7953
2804 7855
2804 7105
2804 5969
2804 4822
2804 4616
2804 3717
2804 3338
2804 1090
2804 523
2804 46
2803 2614
2803 708
2803 237
2802 8403
2802 3304
2802 1849
2802 192
2802 6
2801 8584
2801 8462
2801 1472
2801 1185
2801 995
2800 9818
2800 6422
2800 4694
2800 1120
2800 981
2800 551
2799 8552
2799 6616
2799 3550
2799 128
2799 23
2799 18
2798 9741
2798 8487
2798 4122
2798 2639
2798 914
2798 6
2797 518
2797 255
2797 42
2796 6508
2796 1682
2796 153
2796 15
2795 5245
2795 2305
2795 1466
2795 42
2794 8576
2794 2563
2794 2089
2794 910
2793 2866
2793 948
2793 138
2793 77
2792 6638
2792 2437
2792 1015
2792 93
2791 9403
2791 7049
2791 6170
2791 5729
2791 3417
2791 2455
2791 734
2791 648
2790 7135
2790 3734
2790 3177
2790 55
2790 9
2790 7
2789 2785
2789 1453
2789 918
2788 6632
2788 2120
2788 1875
2788 395
2787 4018
2787 2035
2787 2024
2787 1692
2786 8200
2786 6900
2786 6366
2786 6168
2786 6077
2786 5896
2786 5698
2786 4152
2786 3062
2786 2379
2786 1881
2786 596
2785 7465
2785 3540
2785 3251
2785 2789
2785 621
2785 518
2785 245
2784 9519
2784 5852
2784 5644
2784 5121
2784 4643
2784 2538
2784 874
2784 345
2783 7346
2783 4911
2783 3424
2783 2119
2783 1651
2783 1461
2782 2672
2782 1813
2782 187
2781 9137
2781 1418
2781 375
2781 3
2780 7940
2780 3657
2780 3172
2780 2744
2780 204
2780 100
2779 9985
2779 7132
2779 4401
2779 3987
2779 3805
2779 3156
2779 1094
2779 120
2779 7
2778 3705
2778 2712
2778 507
2778 456
2777 7569
2777 6374
2777 4007
2777 2866
2777 1452
2777 828
2777 500
2776 9081
2776 8942
2776 6848
2776 5842
2776 3636
2776 1273
2776 558
2776 291
2775 6770
2775 731
2775 196
2775 122
2774 2908
2774 748
2774 585
2774 28
2773 6582
2773 6561
2773 6354
2773 2962
2773 2360
2773 488
2773 236
2772 7409
2772 4648
2772 1699
2772 101
2772 37
2771 8268
2771 3431
2771 1698
2771 951
2771 529
2770 2148
2770 729
2770 338
2769 551
2769 461
2769 72
2768 9302
2768 7895
2768 7501
2768 6910
2768 6890
2768 6344
2768 5405
2768 4486
2768 1311
2768 704
2768 72
2767 8616
2767 8494
2767 8106
2767 7297
2767 6416
2767 5776
2767 4971
2767 4540
2767 3929
2767 3374
2767 2085
2767 215
2767 140
2766 8328
2766 3486
2766 2162
2766 1372
2766 444
2765 9297
2765 9280
2765 7608
2765 7472
2765 5120
2765 4606
2765 4269
2765 4256
2765 3918
2765 1241
2765 472
2765 4
2764 8522
2764 3795
2764 3757
2764 930
2764 252
2764 132
2763 8905
2763 7594
2763 7044
2763 6149
2763 4451
2763 2072
2763 1859
2763 200
2762 6478
2762 4923
2762 3608
2762 2177
2762 1539
2762 280
2761 335
2761 237
2761 37
2760 9839
2760 9623
2760 8080
2760 4586
2760 3630
2760 3590
2760 3501
2760 2935
2760 1756
2760 521
2760 5
2759 1575
2759 172
2759 93
2758 5900
2758 5491
2758 809
2758 704
2758 47
2757 1418
2757 1337
2757 1029
2756 4832
2756 3590
2756 493
2756 444
2756 416
2755 8247
2755 5162
2755 2221
2755 420
2755 115
2754 3252
2754 2283
2754 393
2754 110
2753 5000
2753 3192
2753 543
2753 160
2753 58
2752 1128
2752 1114
2752 701
2751 5125
2751 4311
2751 160
2751 1
2751 0
2750 3997
2750 3180
2750 2594
2750 2189
2750 416
2749 9684
2749 8877
2749 8318
2749 7138
2749 7114
2749 6299
2749 5779
2749 274
2749 149
2749 34
2748 8037
2748 7108
2748 4140
2748 3875
2748 2534
2748 1930
2748 518
2747 3017
2747 2102
2747 947
2747 735
2746 6043
2746 4620
2746 1229
2746 245
2746 6
2745 8351
2745 8097
2745 7734
2745 7564
2745 7428
2745 6883
2745 5908
2745 3505
2745 2410
2745 599
2745 375
2744 6203
2744 5127
2744 3525
2744 2780
2744 2505
2744 336
2744 255
2743 9866
2743 8805
2743 8523
2743 6676
2743 6602
2743 6329
2743 3383
2743 550
2743 178
2743 26
2742 8398
2742 5378
2742 2954
2742 2100
2742 2003
2742 554
2741 8962
2741 8881
2741 6871
2741 6003
2741 4963
2741 1127
2741 89
2741 3
2740 9228
2740 6335
2740 1032
2740 730
2740 297
2739 4507
2739 391
2739 186
2739 10
2738 1786
2738 26
2738 23
2737 9759
2737 292
2737 251
2737 1
2736 6008
2736 3926
2736 2646
2736 1424
2736 339
2735 1530
2735 818
2735 256
2734 6677
2734 3616
2734 223
2734 208
2734 13
2733 9819
2733 7841
2733 6686
2733 1143
2733 386
2733 3
2732 7973
2732 6130
2732 3049
2732 1395
2732 624
2732 549
2731 9438
2731 5881
2731 5576
2731 4615
2731 1202
2731 956
2731 796
2730 7094
2730 6429
2730 3036
2730 124
2730 89
2730 0
2729 6747
2729 5425
2729 5418
2729 3856
2729 944
2729 719
2729 503
2728 9105
2728 2474
2728 290
2728 14
2727 9916
2727 5838
2727 2668
2727 543
2727 12
2726 8558
2726 1682
2726 186
2726 50
2725 1092
2725 1001
2725 595
2724 4743
2724 605
2724 389
2724 353
2723 710
2723 194
2723 1
2722 8858
2722 8761
2722 1996
2722 416
2722 70
2721 632
2721 33
2721 0
2720 2370
2720 2365
2720 1236
2719 2939
2719 2575
2719 488
2719 262
2718 9519
2718 8965
2718 7316
2718 6473
2718 5632
2718 5318
2718 3677
2718 3217
2718 2311
2718 63
2718 29
2717 3791
2717 1736
2717 292
2717 273
2716 8662
2716 5854
2716 4210
2716 2903
2716 2173
2716 892
2716 35
2715 6575
2715 5907
2715 3155
2715 1314
2715 699
2715 12
2714 8751
2714 2538
2714 387
2714 184
2713 6256
2713 729
2713 517
2713 93
2712 9708
2712 9426
2712 7707
2712 4879
2712 2778
2712 2645
2712 1102
2712 290
2711 3269
2711 1141
2711 331
2711 110
2710 3601
2710 2959
2710 2646
2710 1418
2710 280
2709 9213
2709 9038
2709 8698
2709 2435
2709 677
2709 412
2708 9676
2708 9181
2708 8976
2708 8792
2708 8538
2708 7482
2708 6547
2708 5508
2708 2470
2708 1725
2708 847
2707 9957
2707 7157
2707 1681
2707 1449
2707 1320
2706 8502
2706 1028
2706 328
2706 2
2705 6251
2705 1970
2705 214
2705 0
2704 5281
2704 2562
2704 2265
2704 2023
2703 8333
2703 7313
2703 7122
2703 2624
2703 584
2703 16
2702 2148
2702 1477
2702 782
2701 4717
2701 2597
2701 1648
2701 698
2700 6867
2700 5681
2700 5669
2700 4731
2700 3006
2700 1751
2700 1541
2700 7
2699 7361
2699 6322
2699 4305
2699 4141
2699 2409
2699 1592
2699 1361
2698 7783
2698 7341
2698 1746
2698 5
2698 0
2697 7648
2697 4016
2697 131
2697 7
2697 6
2696 9694
2696 4179
2696 4019
2696 1918
2696 1122
2696 32
2695 5996
2695 1410
2695 430
2695 55
2694 9784
2694 4170
2694 3690
2694 1538
2694 299
2694 140
2693 3710
2693 3061
2693 776
2693 260
2693 23
2692 9049
2692 7361
2692 6494
2692 4592
2692 4584
2692 3210
2692 2843
2692 442
2692 144
2692 4
2691 7997
2691 1523
2691 1062
2691 1043
2690 7784
2690 5823
2690 778
2690 775
2690 169
2689 8468
2689 6755
2689 6410
2689 5714
2689 4355
2689 3899
2689 3412
2689 2945
2689 2551
2689 937
2689 772
2688 6444
2688 5194
2688 4527
2688 4051
2688 3068
2688 2409
2688 754
2688 111
2687 7487
2687 3921
2687 3539
2687 1711
2687 1600
2687 576
2686 3166
2686 1704
2686 1486
2686 167
2685 9658
2685 1950
2685 1162
2685 165
2684 1970
2684 111
2684 19
2683 4276
2683 1182
2683 236
2683 18
2682 8790
2682 8493
2682 7781
2682 7223
2682 7071
2682 6817
2682 6297
2682 6286
2682 5926
2682 5351
2682 4402
2682 3633
2682 3354
2682 3259
2682 2907
2682 2883
2682 2137
2682 462
2682 293
2681 8694
2681 6673
2681 5301
2681 3691
2681 3292
2681 2243
2681 1126
2681 138
2680 8665
2680 6003
2680 5650
2680 4860
2680 3854
2680 3669
2680 947
2680 688
2680 673
2679 7195
2679 5730
2679 3085
2679 140
2679 119
2679 110
2678 9863
2678 2499
2678 1831
2678 345
2677 125
2677 8
2677 2
2676 7492
2676 7200
2676 7001
2676 6765
2676 5436
2676 669
2676 467
2676 171
2675 7608
2675 7426
2675 3848
2675 3430
2675 1443
2675 881
2675 122
2674 1025
2674 697
2674 172
2673 1703
2673 1404
2673 250
2672 9912
2672 5298
2672 2849
2672 2782
2672 929
2672 149
2672 24
2671 9853
2671 9586
2671 5765
2671 5752
2671 5046
2671 4127
2671 632
2671 274
2671 55
2670 5297
2670 1257
2670 78
2670 5
2669 2293
2669 784
2669 3
2668 6681
2668 6384
2668 5982
2668 5639
2668 4347
2668 4142
2668 2727
2668 2414
2668 1098
2668 1086
2667 5448
2667 1226
2667 622
2667 454
2666 6078
2666 4699
2666 4389
2666 2468
2666 2458
2666 12
2665 9869
2665 8245
2665 6780
2665 4547
2665 3893
2665 2863
2665 1359
2665 678
2665 7
2664 7871
2664 6873
2664 6024
2664 5798
2664 5537
2664 4987
2664 2364
2664 918
2664 462
2663 95
2663 83
2663 57
2662 4816
2662 4303
2662 1083
2662 678
2662 59
2661 3544
2661 2933
2661 2512
2661 187
2661 7
2660 6822
2660 1283
2660 38
2660 4
2659 6328
2659 779
2659 643
2659 131
2658 1585
2658 1496
2658 16
2657 9470
2657 2463
2657 600
2657 551
2656 7405
2656 3923
2656 2274
2656 1682
2656 50
2655 8583
2655 1126
2655 697
2655 50
2654 4530
2654 4059
2654 3624
2654 2631
2654 2083
2654 473
2653 7023
2653 6546
2653 4820
2653 3717
2653 3120
2653 369
2653 104
2653 0
2652 9950
2652 9654
2652 8785
2652 7671
2652 7546
2652 5326
2652 3494
2652 3148
2652 2214
2652 2025
2652 1464
2651 9841
2651 8233
2651 5986
2651 5557
2651 3526
2651 577
2651 474
2651 294
2650 8128
2650 819
2650 793
2650 32
2649 4564
2649 3142
2649 3088
2649 1096
2649 1046
2649 597
2648 7306
2648 4121
2648 1418
2648 1253
2648 249
2647 1872
2647 578
2647 250
2646 8715
2646 8671
2646 8344
2646 6973
2646 6392
2646 4816
2646 4438
2646 3914
2646 2736
2646 2710
2646 2235
2646 1702
2646 2
2645 8537
2645 6508
2645 2712
2645 1110
2645 168
2645 46
2644 863
2644 527
2644 416
2643 1519
2643 1349
2643 46
2642 7388
2642 5861
2642 3929
2642 3305
2642 1290
2642 100
2642 11
2641 1909
2641 1555
2641 1314
2640 671
2640 606
2640 5
2639 9326
2639 8008
2639 7516
2639 2798
2639 582
2639 143
2639 138
2638 1006
2638 84
2638 23
2637 7246
2637 6007
2637 2834
2637 2454
2637 2237
2637 964
2636 3043
2636 2257
2636 688
2636 9
2635 9870
2635 9675
2635 375
2635 292
2635 171
2634 8667
2634 7443
2634 6983
2634 5950
2634 4272
2634 4191
2634 3064
2634 2515
2634 759
2634 1
2633 9695
2633 9360
2633 8771
2633 8381
2633 8346
2633 6527
2633 5274
2633 4539
2633 3328
2633 2354
2633 712
2633 461
2632 7167
2632 1521
2632 1050
2632 45
2631 9947
2631 6492
2631 5263
2631 4970
2631 3685
2631 2654
2631 2327
2631 1335
2631 4
2630 2348
2630 2272
2630 1096
2629 3502
2629 2595
2629 1436
2629 864
2628 4886
2628 3856
2628 608
2628 417
2628 76
2627 1314
2627 699
2627 304
2626 6600
2626 2524
2626 2463
2626 2373
2625 8379
2625 8370
2625 7561
2625 7152
2625 3509
2625 3322
2625 3229
2625 1809
2625 1329
2625 874
2624 2703
2624 1689
2624 1358
2624 2
2623 2485
2623 750
2623 217
2622 8942
2622 7981
2622 7868
2622 7652
2622 7641
2622 6943
2622 6436
2622 1484
2622 1029
2622 227
2621 9295
2621 5149
2621 4729
2621 3132
2621 1570
2621 203
2621 100
2620 8378
2620 7189
2620 6980
2620 1749
2620 1229
2620 303
2619 6390
2619 4146
2619 521
2619 262
2619 87
2618 7159
2618 5493
2618 2034
2618 975
2618 45
2617 9466
2617 9346
2617 7550
2617 5263
2617 4551
2617 639
2617 216
2617 120
2616 2572
2616 1340
2616 886
2615 6290
2615 6071
2615 4840
2615 1250
2615 636
2615 28
2614 2803
2614 2426
2614 1237
2614 764
2613 9115
2613 7931
2613 7133
2613 6576
2613 6355
2613 5789
2613 4390
2613 4355
2613 4293
2613 3826
2613 2912
2613 2829
2613 2001
2613 1463
2613 1432
2612 7568
2612 7298
2612 6096
2612 4367
2612 3030
2612 1061
2612 726
2612 601
2611 4569
2611 293
2611 50
2611 1
2610 4019
2610 2382
2610 613
2610 16
2609 5810
2609 3163
2609 855
2609 296
2609 35
2608 2010
2608 952
2608 510
2607 1035
2607 734
2607 6
2606 6063
2606 4182
2606 1792
2606 246
2606 77
2605 9489
2605 8525
2605 6075
2605 2039
2605 247
2605 33
2604 7061
2604 5142
2604 4179
2604 2561
2604 1196
2604 1119
2603 7417
2603 1584
2603 866
2603 5
2602 246
2602 216
2602 125
2601 8728
2601 7357
2601 5657
2601 5069
2601 1513
2601 641
2601 10
2600 5185
2600 1531
2600 1284
2600 387
2599 2972
2599 388
2599 380
2599 29
2598 1299
2598 565
2598 17
2597 8805
2597 2701
2597 2024
2597 736
2597 57
2596 9848
2596 4801
2596 611
2596 147
2596 14
2595 9394
2595 9094
2595 2629
2595 1786
2595 331
2595 222
2594 7573
2594 4650
2594 4451
2594 2750
2594 1856
2594 917
2594 171
2593 6152
2593 5757
2593 5585
2593 3094
2593 1379
2593 638
2593 365
2592 7345
2592 6695
2592 1680
2592 1483
2592 10
2591 6563
2591 5672
2591 3340
2591 951
2591 458
2591 186
2590 8105
2590 1156
2590 279
2590 19
2589 1089
2589 913
2589 33
2588 3689
2588 2580
2588 1245
2588 558
2587 8425
2587 6707
2587 6399
2587 5008
2587 2542
2587 1658
2587 1551
2586 8962
2586 4018
2586 2206
2586 2043
2586 548
2585 2127
2585 2099
2585 474
2584 6348
2584 5576
2584 1646
2584 783
2584 218
2583 9081
2583 8622
2583 7427
2583 1301
2583 1057
2583 867
2582 8469
2582 5059
2582 1969
2582 901
2582 760
2581 5787
2581 680
2581 231
2581 45
2580 8938
2580 5959
2580 4698
2580 2588
2580 469
2580 138
2580 11
2579 8755
2579 8067
2579 7140
2579 5523
2579 5385
2579 4354
2579 797
2579 207
2579 5
2578 9608
2578 4785
2578 1184
2578 135
2578 6
2577 8855
2577 8582
2577 7444
2577 6936
2577 6148
2577 6129
2577 5287
2577 3921
2577 3396
2577 2415
2577 988
2577 19
2576 7199
2576 5207
2576 5193
2576 3270
2576 1864
2576 893
2576 0
2575 9928
2575 9820
2575 9703
2575 8263
2575 8208
2575 7358
2575 6516
2575 5642
2575 5535
2575 4821
2575 4622
2575 3396
2575 2719
2575 2011
2575 286
2575 8
2574 9198
2574 4566
2574 3855
2574 3498
2574 3385
2574 3376
2574 3090
2574 1974
2574 1495
2574 489
2573 8518
2573 8493
2573 7390
2573 4788
2573 4449
2573 741
2573 4
2573 3
2572 6790
2572 2616
2572 534
2572 457
2572 5
2571 1326
2571 1238
2571 1164
2570 8960
2570 7673
2570 6767
2570 5623
2570 3687
2570 1593
2570 1020
2570 502
2569 8361
2569 6841
2569 5975
2569 4573
2569 4314
2569 2390
2569 2327
2569 1132
2568 8152
2568 3510
2568 1699
2568 1053
2568 18
2567 9292
2567 2520
2567 1883
2567 1847
2566 8348
2566 7415
2566 2978
2566 2815
2566 910
2566 60
2566 16
2565 9601
2565 9587
2565 7799
2565 5572
2565 5383
2565 4094
2565 1806
2565 1439
2565 17
2564 9792
2564 5938
2564 5012
2564 2063
2564 379
2564 332
2563 3478
2563 2794
2563 2009
2563 1782
2563 826
2562 9652
2562 9359
2562 5165
2562 2704
2562 2035
2562 825
2562 263
2561 7402
2561 6551
2561 4691
2561 2904
2561 2604
2561 2097
2561 59
2561 18
2560 8901
2560 985
2560 296
2560 92
2559 7594
2559 6462
2559 6106
2559 4833
2559 4807
2559 2219
2559 743
2559 509
2558 7958
2558 1616
2558 1383
2558 107
2557 1792
2557 77
2557 19
2556 9817
2556 9653
2556 8440
2556 8438
2556 5509
2556 2100
2556 114
2556 6
2555 6918
2555 4495
2555 1234
2555 4
2555 0
2554 9792
2554 2316
2554 1664
2554 599
2553 7192
2553 4545
2553 1223
2553 34
2553 2
2552 6845
2552 1930
2552 956
2552 5
2551 6610
2551 2689
2551 1447
2551 237
2551 198
2550 8887
2550 1799
2550 513
2550 120
2549 8390
2549 7814
2549 6710
2549 3838
2549 3429
2549 1185
2549 624
2549 77
2548 5749
2548 1883
2548 597
2548 465
2547 6719
2547 5362
2547 3459
2547 1242
2547 260
2547 142
2546 8906
2546 6856
2546 6225
2546 4648
2546 4283
2546 3707
2546 3681
2546 2392
2546 771
2546 18
2545 4975
2545 4877
2545 1669
2545 1192
2545 330
2544 4800
2544 3881
2544 2941
2544 1630
2544 1375
2544 947
2543 1455
2543 646
2543 89
2542 7521
2542 2587
2542 1169
2542 888
2542 15
2541 9445
2541 8988
2541 6830
2541 6342
2541 5202
2541 4629
2541 3077
2541 1490
2541 1290
2541 6
2540 3036
2540 2529
2540 2515
2540 1131
2539 7219
2539 6610
2539 4556
2539 3776
2539 3637
2539 2988
2539 809
2539 138
2539 84
2538 7526
2538 6351
2538 3905
2538 3316
2538 2784
2538 2714
2538 2526
2538 999
2538 753
2537 9735
2537 9401
2537 6589
2537 3423
2537 1053
2537 260
2537 5
2536 1678
2536 1320
2536 645
2535 8134
2535 6108
2535 4988
2535 3853
2535 3140
2535 2123
2535 76
2535 20
2534 7996
2534 7979
2534 7650
2534 7035
2534 5663
2534 4655
2534 4090
2534 4006
2534 2748
2534 424
2534 199
2534 22
2533 6395
2533 6147
2533 5934
2533 1461
2533 227
2533 153
2532 6862
2532 4590
2532 2352
2532 1437
2532 202
2531 9471
2531 8586
2531 3066
2531 545
2531 460
2531 26
2530 8970
2530 2499
2530 1690
2530 122
2529 8596
2529 7457
2529 7156
2529 6560
2529 2540
2529 1812
2529 1141
2529 100
2528 5097
2528 577
2528 260
2528 69
2527 7556
2527 6599
2527 5200
2527 3998
2527 1664
2527 122
2527 57
2526 9267
2526 8636
2526 5605
2526 3773
2526 3626
2526 2538
2526 1332
2526 1015
2526 54
2525 8668
2525 8626
2525 8225
2525 5284
2525 1908
2525 1332
2525 668
2524 9429
2524 2626
2524 1726
2524 1189
2524 946
2523 1325
2523 806
2523 288
2522 8776
2522 6670
2522 5648
2522 3650
2522 3356
2522 2497
2522 1377
2522 1313
2521 6118
2521 3270
2521 2334
2521 1781
2521 1516
2520 7290
2520 6399
2520 2567
2520 2302
2520 992
2520 303
2519 7010
2519 1002
2519 650
2519 193
2518 9945
2518 8373
2518 6191
2518 1949
2518 1735
2518 1640
2517 1294
2517 1132
2517 22
2516 678
2516 310
2516 72
2515 9063
2515 8369
2515 7192
2515 6892
2515 5897
2515 4612
2515 3327
2515 3040
2515 2634
2515 2540
2515 564
2515 234
2515 142
2514 9396
2514 3478
2514 1211
2514 641
2514 184
2513 9928
2513 1531
2513 916
2513 591
2512 6252
2512 6214
2512 5549
2512 2661
2512 2037
2512 1729
2512 1514
2511 1824
2511 1028
2511 826
2510 7776
2510 7459
2510 7072
2510 6276
2510 5431
2510 3206
2510 1704
2510 989
2510 7
2509 5527
2509 740
2509 430
2509 7
2508 8971
2508 824
2508 782
2508 184
2507 9471
2507 4844
2507 2073
2507 837
2507 772
2506 9827
2506 9312
2506 8129
2506 7543
2506 4728
2506 709
2506 478
2506 54
2505 7161
2505 2744
2505 265
2505 244
2505 98
2504 264
2504 100
2504 31
2503 6480
2503 1914
2503 542
2503 150
2502 381
2502 202
2502 0
2501 8564
2501 8116
2501 6966
2501 6364
2501 921
2501 355
2501 54
2500 6023
2500 626
2500 168
2500 7
2499 9829
2499 9311
2499 8534
2499 7309
2499 6559
2499 6346
2499 5053
2499 4632
2499 3876
2499 3853
2499 3567
2499 2678
2499 2530
2499 2355
2499 1014
2499 748
2498 9397
2498 7517
2498 790
2498 280
2498 27
2497 9894
2497 8237
2497 5245
2497 4401
2497 2522
2497 826
2497 357
2497 32
2496 8912
2496 7802
2496 5293
2496 4012
2496 353
2496 289
2496 147
2495 8663
2495 678
2495 564
2495 390
2494 1328
2494 59
2494 32
2493 8932
2493 8433
2493 6241
2493 6156
2493 5844
2493 5201
2493 2916
2493 767
2493 529
2493 35
2492 6975
2492 1985
2492 499
2492 332
2491 4163
2491 2976
2491 1338
2491 643
2491 603
2490 9481
2490 6202
2490 4188
2490 1181
2490 629
2490 88
2489 6513
2489 4279
2489 3422
2489 2023
2489 1871
2489 345
2488 721
2488 599
2488 315
2487 8893
2487 7235
2487 6643
2487 4906
2487 3147
2487 1151
2487 1141
2487 535
2486 8440
2486 1338
2486 1328
2486 3
2485 7468
2485 4075
2485 2623
2485 1836
2485 194
2485 6
2484 7531
2484 3002
2484 1638
2484 933
2484 127
2483 9850
2483 9833
2483 9004
2483 6935
2483 5183
2483 4938
2483 4306
2483 3381
2483 3179
2483 2896
2483 892
2483 568
2483 310
2482 6169
2482 5339
2482 5195
2482 3503
2482 2164
2482 263
2482 14
2481 2216
2481 1634
2481 303
2480 4780
2480 1648
2480 990
2480 32
2479 9801
2479 2207
2479 1372
2479 29
2478 9297
2478 1192
2478 203
2478 45
2477 5178
2477 1615
2477 767
2477 478
2476 4920
2476 4420
2476 3494
2476 1938
2476 890
2476 58
2475 9956
2475 7923
2475 6415
2475 5532
2475 4335
2475 1306
2475 1069
2475 825
2474 2728
2474 2432
2474 2025
2474 147
2473 5681
2473 3481
2473 2293
2473 1581
2473 98
2472 8521
2472 8248
2472 7734
2472 4216
2472 3498
2472 1834
2472 1741
2472 26
2471 9631
2471 7293
2471 612
2471 144
2471 132
2470 8529
2470 7420
2470 6008
2470 5461
2470 3295
2470 2708
2470 1330
2470 783
2470 700
2469 1879
2469 1638
2469 31
2468 9498
2468 8540
2468 2666
2468 862
2468 451
2468 7
2467 3642
2467 3286
2467 2225
2467 187
2467 3
2466 9286
2466 7928
2466 7245
2466 7019
2466 1676
2466 1605
2466 252
2465 3634
2465 2107
2465 1786
2465 113
2464 9797
2464 9748
2464 6691
2464 6318
2464 6047
2464 3846
2464 3355
2464 1550
2464 256
2464 252
2463 8850
2463 4058
2463 3666
2463 3645
2463 2946
2463 2657
2463 2626
2463 897
2463 302
2463 90
2462 7582
2462 5779
2462 1650
2462 1164
2462 488
2461 8946
2461 8863
2461 491
2461 246
2461 6
2460 6287
2460 4017
2460 502
2460 496
2460 108
2459 4544
2459 1736
2459 534
2459 307
2458 9780
2458 8203
2458 7457
2458 6921
2458 5643
2458 3117
2458 2666
2458 1742
2458 637
2458 221
2457 7576
2457 1906
2457 535
2457 513
2456 9837
2456 9642
2456 5138
2456 4524
2456 4031
2456 3672
2456 1775
2456 955
2456 19
2455 2791
2455 2442
2455 1648
2455 61
2454 7720
2454 5479
2454 4786
2454 2637
2454 2049
2454 1766
2454 53
2453 2364
2453 336
2453 138
2452 6562
2452 6044
2452 3588
2452 2009
2452 341
2452 286
2451 7099
2451 1259
2451 515
2451 280
2450 1782
2450 708
2450 699
2449 9627
2449 5102
2449 3877
2449 3082
2449 1801
2449 1349
2449 174
2448 9483
2448 9071
2448 5509
2448 2878
2448 995
2448 634
2448 46
2447 4712
2447 2348
2447 735
2447 134
2446 9477
2446 9313
2446 6859
2446 3742
2446 3341
2446 1756
2446 1056
2446 21
2445 1658
2445 153
2445 6
2444 2423
2444 1650
2444 865
2443 3793
2443 2223
2443 1410
2443 1396
2442 6825
2442 4378
2442 3777
2442 2455
2442 2064
2442 1045
2442 161
2441 7860
2441 6336
2441 5834
2441 5578
2441 1899
2441 1665
2441 261
2440 3823
2440 2428
2440 2084
2440 45
2439 8997
2439 5978
2439 2257
2439 675
2439 2
2438 9132
2438 8647
2438 1715
2438 1328
2438 83
2437 7450
2437 6171
2437 5302
2437 4246
2437 3659
2437 2792
2437 1400
2437 1392
2437 2
2436 8752
2436 2086
2436 612
2436 99
2435 9393
2435 9249
2435 8762
2435 8588
2435 8475
2435 8240
2435 8194
2435 6735
2435 4406
2435 4176
2435 3689
2435 2982
2435 2709
2435 2365
2435 416
2435 209
2434 6356
2434 4737
2434 4311
2434 3378
2434 871
2434 429
2434 366
2433 6153
2433 5751
2433 883
2433 91
2433 3
2432 9586
2432 9244
2432 8705
2432 4455
2432 4444
2432 3185
2432 2474
2432 2422
2432 1212
2432 1064
2431 8572
2431 8126
2431 6222
2431 5556
2431 5279
2431 3685
2431 1260
2431 465
2431 457
2430 1872
2430 863
2430 4
2429 6334
2429 5205
2429 1837
2429 958
2429 470
2428 8405
2428 8095
2428 7933
2428 6325
2428 5637
2428 4106
2428 3984
2428 3293
2428 2955
2428 2897
2428 2880
2428 2440
2428 784
2428 37
2428 6
2427 8848
2427 3616
2427 1183
2427 880
2427 337
2426 9575
2426 9472
2426 8768
2426 6595
2426 4722
2426 4614
2426 4068
2426 3333
2426 3289
2426 3124
2426 2614
2426 1328
2426 419
2426 175
2425 9739
2425 1311
2425 78
2425 28
2424 6816
2424 5910
2424 4757
2424 3021
2424 930
2424 360
2424 202
2423 9546
2423 7314
2423 6166
2423 4264
2423 2444
2423 456
2423 164
2423 64
2422 7578
2422 2432
2422 2287
2422 575
2422 288
2421 5817
2421 5445
2421 4116
2421 1592
2421 776
2421 474
2420 8238
2420 4512
2420 3696
2420 2101
2420 1390
2420 905
2419 8719
2419 5572
2419 1706
2419 1226
2419 910
2418 7398
2418 6969
2418 5201
2418 5066
2418 1963
2418 1096
2418 42
2417 9402
2417 6270
2417 1886
2417 280
2417 147
2416 6439
2416 847
2416 92
2416 43
2415 5243
2415 2577
2415 338
2415 333
2415 110
2414 9318
2414 2668
2414 542
2414 484
2414 383
2413 9022
2413 8857
2413 7722
2413 5412
2413 4858
2413 791
2413 188
2413 108
2412 8151
2412 6380
2412 5996
2412 3720
2412 1642
2412 868
2412 326
2411 2034
2411 712
2411 37
2410 8107
2410 6512
2410 5202
2410 2959
2410 2745
2410 2064
2410 2005
2410 718
2409 8693
2409 7511
2409 4866
2409 4319
2409 3461
2409 3008
2409 2699
2409 2688
2409 2328
2409 343
2409 260
2408 4124
2408 2014
2408 1890
2408 1398
2407 8718
2407 7486
2407 6467
2407 4834
2407 1949
2407 1882
2407 1581
2406 9522
2406 4996
2406 1487
2406 710
2406 288
2405 9589
2405 9077
2405 5868
2405 5839
2405 5258
2405 1185
2405 607
2405 127
2404 8607
2404 2864
2404 1988
2404 462
2404 207
2403 7593
2403 6138
2403 3161
2403 2042
2403 596
2403 282
2402 235
2402 176
2402 160
2401 6774
2401 4802
2401 4388
2401 3248
2401 2284
2401 629
2401 30
2400 8851
2400 7999
2400 7264
2400 6544
2400 4767
2400 1242
2400 419
2400 163
2399 3420
2399 444
2399 293
2399 93
2398 7300
2398 7296
2398 4782
2398 3053
2398 2018
2398 626
2398 200
2397 1389
2397 796
2397 3
2396 696
2396 169
2396 7
2395 5215
2395 2149
2395 1591
2395 273
2394 9683
2394 9433
2394 6247
2394 5714
2394 5173
2394 3529
2394 1716
2394 1155
2394 427
2393 3995
2393 3299
2393 835
2393 19
2393 11
2392 5455
2392 5290
2392 2546
2392 1535
2392 1386
2392 490
2391 8880
2391 3190
2391 1381
2391 1095
2391 989
2390 7206
2390 5365
2390 4464
2390 3685
2390 2569
2390 1497
2390 1419
2390 1144
2389 5929
2389 1963
2389 1236
2389 105
2388 6938
2388 5564
2388 1704
2388 926
2388 474
2387 1202
2387 1142
2387 7
2386 5468
2386 4191
2386 3564
2386 3231
2386 3198
2386 2107
2386 1526
2386 190
2385 9815
2385 3565
2385 1045
2385 778
2385 0
2384 7776
2384 449
2384 178
2384 64
2383 5131
2383 436
2383 182
2383 167
2382 6400
2382 6246
2382 5877
2382 5329
2382 5278
2382 4242
2382 2610
2382 2354
2382 598
2382 583
2381 9582
2381 9417
2381 8447
2381 7990
2381 7568
2381 7277
2381 6789
2381 5846
2381 4541
2381 3908
2381 3521
2381 1435
2381 983
2381 1
2380 7761
2380 571
2380 123
2380 110
2379 9289
2379 9010
2379 7826
2379 5914
2379 4628
2379 4411
2379 3087
2379 2809
2379 2786
2379 706
2379 375
2379 6
2378 9904
2378 668
2378 255
2378 70
2377 8436
2377 3846
2377 723
2377 522
2377 74
2376 8475
2376 7931
2376 7403
2376 7375
2376 1491
2376 1055
2376 396
2375 9543
2375 6377
2375 1914
2375 1046
2375 142
2374 8482
2374 8055
2374 7077
2374 6174
2374 6137
2374 4783
2374 3186
2374 513
2374 389
2374 328
2373 2626
2373 1553
2373 777
2373 199
2372 542
2372 168
2372 12
2371 9768
2371 9752
2371 9411
2371 542
2371 419
2371 159
2370 8777
2370 6612
2370 4737
2370 2720
2370 2025
2370 585
2370 12
2369 6469
2369 1787
2369 904
2369 328
2368 4430
2368 3895
2368 1752
2368 917
2368 52
2367 755
2367 642
2367 131
2366 264
2366 115
2366 1
2365 8900
2365 8658
2365 6701
2365 5686
2365 2720
2365 2435
2365 848
2365 136
2365 10
2364 7081
2364 6020
2364 4672
2364 3803
2364 3193
2364 3017
2364 2811
2364 2664
2364 2453
2364 1406
2364 1258
2364 998
2363 6637
2363 806
2363 280
2363 1
2362 8097
2362 566
2362 228
2362 182
2361 5002
2361 1950
2361 166
2361 92
2360 9939
2360 9208
2360 7986
2360 7148
2360 6576
2360 6064
2360 4041
2360 3834
2360 3531
2360 3033
2360 2773
2360 1024
2360 825
2360 648
2359 9623
2359 9276
2359 7838
2359 7368
2359 6949
2359 6116
2359 5939
2359 5813
2359 5290
2359 5217
2359 4541
2359 1061
2359 880
2359 436
2358 7685
2358 722
2358 708
2358 117
2357 7217
2357 1275
2357 293
2357 164
2356 9726
2356 9550
2356 5240
2356 5216
2356 4158
2356 776
2356 580
2356 34
2355 4803
2355 2499
2355 856
2355 74
2355 7
2354 8770
2354 6481
2354 4976
2354 3519
2354 3476
2354 3313
2354 2633
2354 2382
2354 1970
2354 258
2354 46
2353 5168
2353 4748
2353 4373
2353 1131
2353 825
2353 91
2352 8783
2352 8525
2352 7627
2352 5918
2352 5828
2352 5761
2352 4860
2352 4215
2352 3428
2352 3067
2352 2839
2352 2532
2352 162
2352 139
2352 3
2351 7332
2351 6985
2351 2335
2351 278
2351 60
2350 600
2350 186
2350 102
2349 8922
2349 3023
2349 2032
2349 1291
2349 973
2348 4407
2348 2630
2348 2447
2348 708
2348 72
2348 55
2347 3976
2347 1853
2347 1306
2347 53
2346 9721
2346 5871
2346 1169
2346 621
2346 604
2345 9100
2345 7474
2345 6079
2345 4071
2345 3937
2345 3845
2345 3664
2345 3056
2345 496
2345 193
2345 9
2344 9731
2344 9183
2344 8893
2344 6752
2344 6509
2344 5019
2344 4514
2344 4295
2344 3932
2344 3883
2344 3493
2344 3364
2344 754
2344 190
2344 100
2343 5284
2343 1670
2343 182
2343 65
2342 9140
2342 4417
2342 902
2342 775
2342 237
2341 8689
2341 6233
2341 5449
2341 5160
2341 4087
2341 4054
2341 1432
2341 670
2341 27
2340 8514
2340 2021
2340 839
2340 486
2339 8162
2339 6121
2339 4197
2339 1623
2339 1598
2339 1229
2338 7538
2338 7366
2338 1708
2338 673
2338 36
2337 9794
2337 723
2337 535
2337 234
2336 5916
2336 4903
2336 4257
2336 2867
2336 1228
2336 511
2336 416
2335 8779
2335 7615
2335 7163
2335 7162
2335 6635
2335 3889
2335 3164
2335 2351
2335 2178
2335 1982
2335 135
2334 9790
2334 8549
2334 4783
2334 2521
2334 1019
2334 291
2334 274
2333 9131
2333 8773
2333 8177
2333 5239
2333 1036
2333 160
2333 27
2332 7258
2332 6870
2332 6317
2332 5677
2332 3729
2332 3615
2332 1472
2332 762
2332 393
2331 5102
2331 1131
2331 1081
2331 309
2330 9656
2330 5349
2330 3102
2330 1745
2330 579
2330 3
2329 9133
2329 720
2329 345
2329 176
2328 9417
2328 2409
2328 2271
2328 1601
2328 28
2327 8477
2327 6343
2327 4706
2327 2631
2327 2569
2327 1449
2327 632
2327 269
2326 8716
2326 8592
2326 6705
2326 6549
2326 6506
2326 5291
2326 4325
2326 4298
2326 3212
2326 1478
2326 389
2326 2
2325 9423
2325 8740
2325 8106
2325 7174
2325 5154
2325 1781
2325 558
2325 65
2324 8809
2324 6767
2324 443
2324 153
2324 72
2323 4336
2323 1291
2323 882
2323 16
2322 7986
2322 5810
2322 5596
2322 4988
2322 1931
2322 654
2322 338
2321 1137
2321 181
2321 6
2320 5944
2320 4273
2320 255
2320 244
2320 65
2319 2094
2319 760
2319 651
2318 1335
2318 557
2318 78
2317 4866
2317 1443
2317 526
2317 485
2316 6323
2316 4962
2316 2554
2316 1594
2316 952
2316 6
2315 7756
2315 6006
2315 3095
2315 689
2315 245
2315 33
2314 9281
2314 7552
2314 7214
2314 4164
2314 3409
2314 345
2314 295
2314 175
2313 9713
2313 7550
2313 6772
2313 6376
2313 6103
2313 5530
2313 3161
2313 3037
2313 1649
2313 1441
2313 512
2312 2927
2312 818
2312 95
2312 77
2311 2718
2311 1550
2311 192
2311 53
2310 2149
2310 1763
2310 1401
2309 9199
2309 7762
2309 7254
2309 5782
2309 826
2309 493
2309 332
2308 8623
2308 7393
2308 3641
2308 1275
2308 697
2308 125
2307 7867
2307 1257
2307 927
2307 317
2306 7242
2306 3223
2306 1648
2306 948
2306 176
2305 8000
2305 2795
2305 1233
2305 414
2305 279
2304 8020
2304 3496
2304 3186
2304 2877
2304 289
2304 257
2304 108
2303 7269
2303 5093
2303 5034
2303 3400
2303 3018
2303 1520
2303 1182
2303 14
2302 7414
2302 3065
2302 2520
2302 1041
2302 10
2302 7
2301 8978
2301 8862
2301 3607
2301 1735
2301 532
2301 153
2300 3883
2300 2159
2300 2126
2300 1829
2299 9617
2299 7470
2299 4260
2299 2185
2299 165
2299 43
2298 5970
2298 1024
2298 316
2298 124
2297 6644
2297 1782
2297 1760
2297 284
2296 5179
2296 4458
2296 4365
2296 4069
2296 1185
2296 135
2296 90
2295 9925
2295 7825
2295 6262
2295 30
2295 17
2295 7
2294 6881
2294 4797
2294 3366
2294 613
2294 168
2294 48
2293 7762
2293 7293
2293 7049
2293 6749
2293 6711
2293 5538
2293 5470
2293 5091
2293 4779
2293 3002
2293 2669
2293 2473
2293 120
2293 28
2293 15
2292 1252
2292 1054
2292 416
2291 842
2291 65
2291 1
2290 8678
2290 209
2290 86
2290 9
2289 1779
2289 942
2289 674
2288 7862
2288 7613
2288 7586
2288 4819
2288 4411
2288 4383
2288 4227
2288 2847
2288 1678
2288 579
2288 402
2287 7553
2287 3650
2287 2422
2287 1947
2287 102
2287 16
2286 5225
2286 972
2286 715
2286 493
2285 3922
2285 3424
2285 1891
2285 696
2285 449
2284 6408
2284 5031
2284 4209
2284 2401
2284 1494
2284 615
2284 225
2283 8036
2283 2754
2283 2180
2283 1090
2283 411
2282 8379
2282 6407
2282 3235
2282 3016
2282 1753
2282 395
2282 110
2281 2131
2281 143
2281 132
2280 9438
2280 8630
2280 6057
2280 5160
2280 768
2280 718
2280 93
2279 8090
2279 5543
2279 5104
2279 5080
2279 4644
2279 1962
2279 670
2279 514
2278 6472
2278 4376
2278 1036
2278 1028
2278 318
2277 9952
2277 7920
2277 7730
2277 696
2277 45
2277 2
2276 7970
2276 6109
2276 6001
2276 5553
2276 2833
2276 860
2276 637
2276 141
2275 9077
2275 1186
2275 869
2275 863
2274 9927
2274 9413
2274 9195
2274 8877
2274 5511
2274 4598
2274 3576
2274 2656
2274 577
2274 125
2274 49
2273 7435
2273 4259
2273 297
2273 268
2273 1
2272 4696
2272 4621
2272 3924
2272 2630
2272 1715
2272 710
2272 285
2271 8747
2271 8329
2271 8260
2271 2328
2271 1584
2271 937
2271 404
2270 7600
2270 345
2270 187
2270 19
2269 7757
2269 5697
2269 3149
2269 2951
2269 743
2269 192
2269 15
2268 3724
2268 3473
2268 2065
2268 1494
2268 208
2267 1699
2267 52
2267 1
2266 9915
2266 1824
2266 1311
2266 155
2265 2704
2265 1865
2265 264
2265 87
2264 9884
2264 7677
2264 3610
2264 1724
2264 607
2264 37
2263 4934
2263 2042
2263 1347
2263 31
2262 6799
2262 4189
2262 3055
2262 2003
2262 698
2262 264
2261 8778
2261 6784
2261 2190
2261 697
2261 382
2260 9975
2260 6116
2260 5583
2260 5400
2260 5341
2260 5098
2260 3371
2260 1878
2260 769
2260 508
2259 9832
2259 7714
2259 6488
2259 3910
2259 1847
2259 1183
2259 814
2258 8626
2258 4599
2258 4377
2258 4090
2258 2981
2258 834
2258 683
2258 380
2257 9744
2257 9335
2257 8204
2257 2636
2257 2439
2257 899
2257 387
2257 332
2256 4674
2256 710
2256 355
2256 4
2255 3523
2255 1758
2255 1684
2255 246
2254 7900
2254 5078
2254 1668
2254 297
2254 38
2253 6006
2253 2074
2253 1880
2253 579
2252 4404
2252 4232
2252 2967
2252 176
2252 49
2252 7
2251 6446
2251 2191
2251 1615
2251 57
2250 6098
2250 5258
2250 5214
2250 4029
2250 3871
2250 3445
2250 3102
2250 288
2250 23
2250 9
2249 4459
2249 4169
2249 2169
2249 873
2249 19
2248 6754
2248 6483
2248 6387
2248 3492
2248 1863
2248 1634
2248 263
2247 551
2247 180
2247 7
2246 4887
2246 455
2246 403
2246 348
2245 9968
2245 9955
2245 5683
2245 3110
2245 1594
2245 911
2245 345
2244 7487
2244 2156
2244 1897
2244 203
2243 9967
2243 2681
2243 1976
2243 1148
2243 7
2242 5317
2242 2865
2242 2058
2242 506
2242 2
2241 8638
2241 7869
2241 3239
2241 1668
2241 1141
2241 93
2240 6967
2240 4409
2240 4262
2240 493
2240 474
2240 88
2239 8973
2239 7845
2239 4235
2239 3454
2239 2816
2239 749
2239 9
2239 7
2238 8163
2238 5848
2238 5793
2238 4701
2238 924
2238 726
2238 545
2237 6888
2237 6235
2237 5786
2237 5470
2237 5029
2237 3768
2237 3605
2237 2637
2237 380
2237 120
2237 9
2236 3885
2236 3098
2236 1199
2236 594
2236 545
2235 2824
2235 2646
2235 320
2235 28
2235 14
2234 9846
2234 7830
2234 75
2234 59
2234 6
2233 8788
2233 7105
2233 6521
2233 4165
2233 1080
2233 640
2233 46
2232 6636
2232 6525
2232 6479
2232 5069
2232 3578
2232 3184
2232 1105
2232 892
2232 108
2231 8707
2231 4034
2231 2160
2231 1672
2231 474
2230 3313
2230 1963
2230 632
2230 130
2229 5427
2229 4329
2229 3502
2229 464
2229 239
2229 46
2228 9279
2228 8692
2228 7045
2228 5195
2228 4374
2228 4239
2228 2216
2228 683
2228 199
2227 7150
2227 4656
2227 3244
2227 1654
2227 162
2227 7
2226 1983
2226 512
2226 204
2225 5259
2225 3028
2225 2467
2225 1521
2225 790
2225 190
2224 9157
2224 5816
2224 5172
2224 2855
2224 1720
2224 821
2224 104
2223 8791
2223 5401
2223 3334
2223 2443
2223 827
2223 255
2223 89
2222 8119
2222 6088
2222 2097
2222 416
2222 78
2221 7310
2221 6577
2221 2755
2221 1924
2221 642
2221 334
2220 4350
2220 782
2220 673
2220 34
2219 7379
2219 6321
2219 2559
2219 2192
2219 894
2219 783
2218 6048
2218 4861
2218 4582
2218 4561
2218 3178
2218 1089
2218 581
2218 419
2217 2010
2217 769
2217 458
2216 8775
2216 7819
2216 7658
2216 7154
2216 7045
2216 6757
2216 6653
2216 5410
2216 5212
2216 4605
2216 3844
2216 2481
2216 2228
2216 941
2216 186
2216 14
2215 8315
2215 4148
2215 251
2215 228
2215 169
2214 7919
2214 6960
2214 5888
2214 5795
2214 3492
2214 2652
2214 2188
2214 849
2214 150
2213 8517
2213 8472
2213 7877
2213 7526
2213 5515
2213 5048
2213 73
2213 4
2213 0
2212 7149
2212 6629
2212 6318
2212 5957
2212 3561
2212 3159
2212 2031
2212 1965
2212 168
2211 1039
2211 1028
2211 37
2210 1779
2210 1520
2210 1427
2209 3498
2209 2012
2209 271
2209 18
2208 1347
2208 977
2208 23
2207 4358
2207 2960
2207 2479
2207 677
2207 299
2207 57
2206 6674
2206 2586
2206 1383
2206 1192
2206 428
2205 7670
2205 3336
2205 450
2205 23
2205 5
2204 9707
2204 7217
2204 3055
2204 2202
2204 2109
2204 17
2203 8700
2203 6791
2203 6364
2203 3597
2203 2925
2203 352
2203 45
2203 9
2202 8784
2202 6178
2202 4437
2202 3056
2202 2204
2202 2192
2202 30
2202 6
2201 5264
2201 201
2201 113
2201 72
2200 8481
2200 1649
2200 49
2200 14
2199 7399
2199 6615
2199 642
2199 192
2199 72
2198 8703
2198 7623
2198 6263
2198 4773
2198 4402
2198 3288
2198 748
2198 180
2198 28
2197 3315
2197 2882
2197 1395
2197 125
2197 3
2196 9014
2196 4320
2196 4018
2196 3249
2196 847
2196 331
2196 3
2195 9449
2195 4876
2195 3623
2195 1257
2195 616
2195 185
2194 9588
2194 7350
2194 7032
2194 6329
2194 4992
2194 3544
2194 2189
2194 1979
2194 92
2193 9847
2193 5053
2193 1602
2193 180
2193 142
2192 8326
2192 7444
2192 6910
2192 5641
2192 4604
2192 3460
2192 2977
2192 2219
2192 2202
2192 2077
2192 917
2192 100
2191 8293
2191 3290
2191 2251
2191 1581
2191 775
2191 9
2190 4595
2190 4462
2190 3683
2190 2261
2190 1841
2190 386
2190 58
2189 7848
2189 7235
2189 5507
2189 5261
2189 4664
2189 3801
2189 3778
2189 3751
2189 3337
2189 2750
2189 2194
2189 1014
2189 734
2189 520
2188 7763
2188 6744
2188 6649
2188 5943
2188 4578
2188 3786
2188 3276
2188 2868
2188 2214
2188 957
2188 119
2188 44
2187 5096
2187 4381
2187 496
2187 480
2187 253
2186 7925
2186 5760
2186 5401
2186 5175
2186 4679
2186 2128
2186 720
2186 583
2185 8813
2185 8670
2185 8022
2185 7641
2185 7397
2185 3383
2185 2299
2185 1686
2185 1651
2185 1150
2184 3878
2184 1571
2184 787
2184 7
2183 8153
2183 1075
2183 478
2183 46
2182 6421
2182 3570
2182 1337
2182 1021
2182 1005
2181 3086
2181 1503
2181 18
2181 4
2180 9511
2180 7716
2180 2283
2180 1087
2180 866
2180 704
2179 8709
2179 3365
2179 688
2179 376
2179 78
2178 9891
2178 9406
2178 7219
2178 6581
2178 5495
2178 5383
2178 4452
2178 2953
2178 2335
2178 518
2178 478
2178 7
2177 9201
2177 8316
2177 5708
2177 2762
2177 513
2177 421
2177 13
2176 4588
2176 3843
2176 336
2176 110
2176 108
2175 9361
2175 5210
2175 253
2175 95
2175 92
2174 4445
2174 2931
2174 650
2174 326
2174 130
2173 4086
2173 3794
2173 3369
2173 3284
2173 2838
2173 2716
2173 783
2173 169
2173 166
2172 9409
2172 8866
2172 1871
2172 1819
2172 142
2171 9177
2171 7620
2171 1992
2171 1761
2171 1463
2170 9217
2170 7315
2170 6952
2170 3096
2170 1629
2170 566
2170 108
2169 8895
2169 7849
2169 7658
2169 7436
2169 3147
2169 2249
2169 1164
2169 1075
2169 723
2168 7620
2168 3035
2168 808
2168 797
2168 614
2167 1950
2167 688
2167 285
2166 7307
2166 5832
2166 5642
2166 4146
2166 3183
2166 1692
2166 436
2166 52
2165 7406
2165 870
2165 307
2165 216
2164 5830
2164 4038
2164 3675
2164 3308
2164 3132
2164 3059
2164 2482
2164 1813
2164 156
2164 84
2163 7021
2163 1465
2163 1271
2163 429
2162 9442
2162 7633
2162 4716
2162 3298
2162 3284
2162 2766
2162 992
2162 793
2162 23
2161 8042
2161 6753
2161 5909
2161 3727
2161 3294
2161 2934
2161 413
2161 321
2161 27
2160 8465
2160 7068
2160 3686
2160 2231
2160 1383
2160 873
2160 9
2159 5969
2159 4284
2159 3519
2159 2894
2159 2300
2159 1996
2159 353
2159 163
2158 7126
2158 6245
2158 3744
2158 3428
2158 1369
2158 1115
2158 130
2157 8204
2157 4511
2157 4343
2157 3909
2157 3429
2157 995
2157 516
2157 130
2156 6076
2156 3852
2156 2244
2156 1711
2156 621
2156 104
2155 2950
2155 1197
2155 117
2155 5
2154 4682
2154 1117
2154 117
2154 28
2153 4982
2153 4955
2153 347
2153 317
2153 46
2152 7659
2152 6050
2152 1545
2152 41
2152 17
2151 3164
2151 3103
2151 1032
2151 46
2151 5
2150 9248
2150 8972
2150 7909
2150 7512
2150 6786
2150 6211
2150 5462
2150 5413
2150 3069
2150 2843
2150 1766
2150 315
2150 4
2149 4638
2149 2989
2149 2395
2149 2310
2149 722
2149 556
2149 285
2148 8224
2148 6404
2148 3353
2148 2770
2148 2702
2148 543
2148 335
2148 276
2147 303
2147 45
2147 0
2146 8539
2146 5468
2146 1934
2146 977
2146 572
2145 5240
2145 3617
2145 1660
2145 253
2145 6
2144 130
2144 31
2144 13
2143 6418
2143 4969
2143 2114
2143 1882
2143 7
2142 8181
2142 7713
2142 6976
2142 6203
2142 810
2142 161
2142 45
2141 6615
2141 1470
2141 48
2141 23
2140 9660
2140 9136
2140 6486
2140 5156
2140 5049
2140 3434
2140 1739
2140 184
2140 69
2139 6942
2139 1604
2139 474
2139 153
2138 792
2138 264
2138 57
2137 5722
2137 5363
2137 5206
2137 5072
2137 4859
2137 2682
2137 1982
2137 1627
2137 371
2136 9583
2136 9189
2136 9046
2136 8072
2136 820
2136 755
2136 449
2135 7137
2135 7132
2135 5537
2135 5519
2135 3329
2135 1709
2135 315
2135 32
2134 9087
2134 5273
2134 1565
2134 356
2134 88
2133 9889
2133 9132
2133 7484
2133 5559
2133 4926
2133 3699
2133 3274
2133 1517
2133 1048
2133 419
2132 7322
2132 1670
2132 186
2132 138
2131 8543
2131 7905
2131 2281
2131 1602
2131 464
2131 241
2130 1623
2130 416
2130 32
2129 1954
2129 686
2129 255
2128 8870
2128 2186
2128 1635
2128 1398
2128 1319
2127 9825
2127 8432
2127 7084
2127 5399
2127 3044
2127 2585
2127 1226
2127 88
2127 3
2126 9607
2126 6696
2126 5750
2126 4071
2126 2300
2126 1842
2126 736
2126 514
2125 9285
2125 935
2125 874
2125 678
2124 8084
2124 4130
2124 3881
2124 3804
2124 3797
2124 1105
2124 183
2124 0
2123 7738
2123 4990
2123 4810
2123 2535
2123 616
2123 307
2123 210
2122 436
2122 262
2122 9
2121 1028
2121 609
2121 584
2120 8407
2120 6616
2120 2788
2120 1197
2120 697
2120 383
2119 5291
2119 3072
2119 2783
2119 1357
2119 1304
2119 904
2118 4643
2118 332
2118 225
2118 163
2117 9139
2117 3668
2117 1550
2117 100
2117 44
2116 2886
2116 1472
2116 1413
2116 14
2115 6999
2115 1704
2115 1646
2115 717
2114 5981
2114 5805
2114 5241
2114 3557
2114 2143
2114 627
2114 289
2114 8
2113 7850
2113 5257
2113 4359
2113 3759
2113 3042
2113 738
2113 50
2113 45
2112 8546
2112 8279
2112 6693
2112 6045
2112 4770
2112 3451
2112 1107
2112 369
2112 222
2111 4493
2111 1357
2111 232
2111 138
2110 8492
2110 3377
2110 567
2110 324
2110 4
2109 9705
2109 5373
2109 2204
2109 1507
2109 960
2109 18
2108 1556
2108 673
2108 79
2107 7431
2107 6663
2107 4948
2107 2883
2107 2465
2107 2386
2107 1627
2107 1468
2107 1299
2106 5820
2106 3213
2106 1555
2106 783
2106 63
2105 9045
2105 6564
2105 5611
2105 5150
2105 1963
2105 1331
2105 95
2104 8774
2104 7176
2104 4343
2104 4175
2104 3915
2104 691
2104 32
2104 7
2103 8012
2103 6489
2103 1531
2103 1055
2103 518
2102 5164
2102 4356
2102 3425
2102 3130
2102 2747
2102 1910
2102 1575
2102 589
2101 9116
2101 5354
2101 2420
2101 1993
2101 1073
2101 615
2100 8807
2100 7669
2100 2742
2100 2556
2100 1244
2100 83
2100 0
2099 7502
2099 6073
2099 4112
2099 3873
2099 3740
2099 3702
2099 3645
2099 3442
2099 2585
2099 1706
2099 1162
2099 542
2098 6915
2098 4477
2098 4230
2098 3628
2098 2067
2098 945
2098 26
2097 8210
2097 5948
2097 5387
2097 4732
2097 2561
2097 2222
2097 1836
2097 183
2097 12
2096 3262
2096 63
2096 6
2096 0
2095 7691
2095 7537
2095 6394
2095 4682
2095 1706
2095 88
2095 1
2094 9714
2094 9320
2094 9178
2094 8331
2094 8289
2094 6907
2094 6561
2094 5841
2094 5608
2094 5067
2094 3624
2094 3458
2094 3291
2094 2898
2094 2319
2094 554
2094 244
2094 46
2093 1195
2093 37
2093 6
2092 188
2092 158
2092 68
2091 6239
2091 4553
2091 3135
2091 1004
2091 969
2091 745
2090 6101
2090 1151
2090 589
2090 194
2089 8583
2089 6228
2089 3604
2089 2839
2089 2794
2089 1295
2089 36
2089 32
2088 6785
2088 5567
2088 5132
2088 3005
2088 120
2088 83
2088 7
2087 5893
2087 5463
2087 4705
2087 3514
2087 3343
2087 1551
2087 1152
2087 695
2086 7549
2086 2436
2086 2030
2086 193
2086 110
2085 5420
2085 4017
2085 2875
2085 2767
2085 1037
2085 300
2085 270
2084 5760
2084 5364
2084 4556
2084 2440
2084 1091
2084 78
2084 29
2083 2654
2083 1950
2083 1175
2083 182
2082 9493
2082 7212
2082 4228
2082 3566
2082 2972
2082 1494
2082 891
2082 4
2081 74
2081 12
2081 4
2080 9706
2080 6639
2080 1457
2080 825
2080 246
2079 9499
2079 6729
2079 6490
2079 3229
2079 1750
2079 708
2079 18
2078 8273
2078 6108
2078 2929
2078 1079
2078 369
2078 3
2077 8615
2077 5944
2077 4440
2077 3652
2077 3202
2077 2192
2077 1704
2077 17
2077 7
2076 4047
2076 3995
2076 2061
2076 2042
2076 69
2075 7980
2075 7879
2075 1505
2075 166
2075 14
2074 5822
2074 5593
2074 5445
2074 4883
2074 4503
2074 4037
2074 2253
2074 545
2074 467
2074 33
2073 2507
2073 1657
2073 937
2073 742
2072 7362
2072 6987
2072 6635
2072 4132
2072 2763
2072 1331
2072 670
2072 643
2071 1101
2071 821
2071 102
2070 870
2070 246
2070 135
2069 9925
2069 4516
2069 1373
2069 1266
2069 290
2068 4887
2068 2028
2068 1801
2068 331
2067 4484
2067 4360
2067 4005
2067 2098
2067 142
2067 5
2067 4
2066 2050
2066 1942
2066 1149
2065 5362
2065 4735
2065 4610
2065 2268
2065 1836
2065 1792
2065 888
2064 8233
2064 6251
2064 4032
2064 3661
2064 2442
2064 2410
2064 225
2064 29
2064 3
2063 9520
2063 8782
2063 7847
2063 6250
2063 5349
2063 4933
2063 4806
2063 4742
2063 2564
2063 1764
2063 1043
2063 24
2062 9518
2062 7886
2062 1495
2062 705
2062 147
2061 6265
2061 5163
2061 3370
2061 3050
2061 2076
2061 372
2061 347
2061 13
2060 8572
2060 4310
2060 677
2060 499
2060 352
2059 5381
2059 641
2059 161
2059 100
2058 9815
2058 8635
2058 6905
2058 3764
2058 3143
2058 2242
2058 461
2058 117
2058 7
2057 6559
2057 3931
2057 3619
2057 1716
2057 697
2057 509
2056 4548
2056 1942
2056 1581
2056 19
2055 9525
2055 2031
2055 384
2055 318
2054 8080
2054 6972
2054 5926
2054 5814
2054 4794
2054 3983
2054 3177
2054 470
2054 424
2054 317
2053 753
2053 449
2053 435
2052 4798
2052 3359
2052 3306
2052 3171
2052 286
2052 37
2052 7
2051 4263
2051 1887
2051 298
2051 99
2050 9748
2050 2066
2050 1010
2050 752
2050 33
2049 8861
2049 6288
2049 5401
2049 4167
2049 3545
2049 2454
2049 665
2049 292
2049 4
2048 6428
2048 4008
2048 3299
2048 3256
2048 1226
2048 806
2048 525
2047 9084
2047 718
2047 410
2047 41
2046 9665
2046 1979
2046 1209
2046 2
2045 6430
2045 1506
2045 421
2045 42
2044 5357
2044 4151
2044 2893
2044 1240
2044 1229
2044 171
2043 8430
2043 7110
2043 6374
2043 5758
2043 2586
2043 655
2043 153
2043 74
2042 7302
2042 5593
2042 4510
2042 4128
2042 2965
2042 2403
2042 2263
2042 2076
2042 1750
2042 1149
2042 156
2041 6279
2041 3099
2041 1058
2041 77
2041 7
2040 645
2040 124
2040 53
2039 3381
2039 3080
2039 2605
2039 2037
2039 698
2039 74
2038 7995
2038 7597
2038 7286
2038 7084
2038 6580
2038 6409
2038 5721
2038 4932
2038 4439
2038 2944
2038 2033
2038 985
2038 115
2037 6160
2037 4912
2037 3854
2037 2940
2037 2512
2037 2039
2037 1229
2037 790
2037 41
2036 9101
2036 9096
2036 8351
2036 5730
2036 1377
2036 209
2036 91
2035 8982
2035 3209
2035 3079
2035 2787
2035 2562
2035 959
2035 566
2035 20
2034 8059
2034 7012
2034 4165
2034 3117
2034 2618
2034 2411
2034 628
2034 608
2034 4
2033 9643
2033 8333
2033 4873
2033 2038
2033 1502
2033 856
2033 489
2032 5085
2032 4373
2032 4156
2032 2878
2032 2349
2032 1195
2032 177
2032 9
2031 7216
2031 6937
2031 6034
2031 5881
2031 4366
2031 3367
2031 2212
2031 2055
2031 1580
2031 512
2031 239
2030 6945
2030 4495
2030 2086
2030 617
2030 608
2030 166
2029 8703
2029 6120
2029 4869
2029 1565
2029 338
2029 203
2028 9042
2028 8685
2028 8400
2028 3517
2028 2068
2028 1496
2028 389
2028 60
2027 122
2027 6
2027 5
2026 8667
2026 1901
2026 661
2026 260
2025 8141
2025 6282
2025 6010
2025 5912
2025 4757
2025 3399
2025 3322
2025 2823
2025 2652
2025 2474
2025 2370
2025 1382
2025 119
2025 6
2024 3222
2024 2787
2024 2597
2024 489
2024 50
2024 0
2023 9804
2023 9416
2023 8611
2023 7932
2023 6213
2023 4253
2023 3335
2023 2704
2023 2489
2023 69
2023 45
2023 9
2022 9246
2022 2900
2022 688
2022 540
2022 6
2021 8735
2021 6582
2021 5561
2021 2340
2021 1784
2021 1434
2021 424
2020 3432
2020 3303
2020 1951
2020 1195
2020 672
2019 9144
2019 1296
2019 1203
2019 105
2018 4537
2018 4238
2018 3761
2018 2845
2018 2398
2018 1604
2018 266
2018 100
2017 5542
2017 4448
2017 1593
2017 577
2017 7
2016 4086
2016 3733
2016 484
2016 182
2016 35
2015 9905
2015 9545
2015 5918
2015 5692
2015 5459
2015 5033
2015 5002
2015 4950
2015 3594
2015 3509
2015 2991
2015 1965
2015 1865
2015 1682
2014 3405
2014 2408
2014 1382
2014 573
2014 256
2013 7436
2013 5191
2013 1882
2013 904
2013 247
2012 8202
2012 6877
2012 2209
2012 1646
2012 1639
2012 637
2011 5818
2011 2575
2011 1427
2011 458
2011 293
2010 9626
2010 7844
2010 5534
2010 3034
2010 2608
2010 2217
2010 1078
2010 916
2010 45
2009 6491
2009 3760
2009 3265
2009 2563
2009 2452
2009 1204
2009 683
2009 556
2008 6126
2008 4728
2008 818
2008 550
2008 40
2007 7958
2007 6452
2007 5572
2007 1082
2007 329
2007 220
2006 9801
2006 3818
2006 1918
2006 1861
2006 1476
2005 9680
2005 9306
2005 6995
2005 6875
2005 4062
2005 3358
2005 3153
2005 2993
2005 2410
2005 869
2005 819
2005 165
2004 9011
2004 1666
2004 1422
2004 275
2003 9228
2003 9108
2003 9082
2003 7491
2003 7459
2003 6833
2003 5418
2003 5049
2003 4817
2003 3091
2003 2742
2003 2262
2003 1570
2003 1164
2003 333
2002 246
2002 102
2002 45
2001 9828
2001 9185
2001 7205
2001 6620
2001 6227
2001 5166
2001 5146
2001 5123
2001 4901
2001 4633
2001 4161
2001 3841
2001 3199
2001 2983
2001 2939
2001 2613
2001 1209
2001 723
2001 153
2000 8789
2000 8042
2000 585
2000 501
2000 267
1999 4688
1999 852
1999 303
1999 5
1998 6136
1998 6010
1998 1113
1998 274
1998 63
1997 3311
1997 1063
1997 1052
1997 117
1996 9643
1996 4575
1996 4469
1996 3375
1996 3251
1996 3004
1996 2722
1996 2159
1996 1056
1996 723
1996 452
1995 5077
1995 5023
1995 1950
1995 1275
1995 822
1994 7261
1994 5522
1994 4241
1994 1589
1994 204
1994 147
1993 3065
1993 2101
1993 1517
1993 1481
1993 0
1992 7859
1992 5993
1992 5901
1992 2171
1992 1096
1992 946
1992 556
1991 8203
1991 310
1991 128
1991 37
1990 9983
1990 8627
1990 7142
1990 5676
1990 641
1990 387
1990 74
1989 9475
1989 46
1989 30
1989 19
1988 7279
1988 2404
1988 1786
1988 990
1988 304
1987 8830
1987 8034
1987 6936
1987 6284
1987 3201
1987 1048
1987 470
1987 160
1986 9799
1986 8002
1986 6745
1986 5403
1986 3867
1986 977
1986 569
1986 2
1985 5737
1985 4045
1985 2492
1985 1965
1985 1007
1985 156
1984 9159
1984 8046
1984 6665
1984 4215
1984 3850
1984 3363
1984 2874
1984 1382
1984 194
1984 40
1983 9276
1983 8895
1983 4938
1983 4814
1983 4186
1983 3118
1983 2226
1983 1438
1983 806
1983 216
1982 8492
1982 6958
1982 6921
1982 4032
1982 2335
1982 2137
1982 1903
1982 293
1982 250
1981 9978
1981 7367
1981 6018
1981 5763
1981 5127
1981 4680
1981 1831
1981 359
1981 246
1980 5418
1980 1352
1980 185
1980 2
1979 9924
1979 9422
1979 6146
1979 2194
1979 2046
1979 1498
1979 93
1979 32
1978 5465
1978 4806
1978 4045
1978 1721
1978 716
1978 352
1977 7350
1977 6963
1977 6827
1977 1897
1977 976
1977 461
1976 9066
1976 8657
1976 6848
1976 2243
1976 870
1976 362
1976 3
1975 9456
1975 7088
1975 1811
1975 1024
1975 949
1974 9090
1974 7111
1974 6023
1974 5234
1974 4671
1974 3087
1974 2574
1974 1941
1974 1150
1974 673
1973 7727
1973 6054
1973 861
1973 110
1973 55
1972 8192
1972 6759
1972 5082
1972 4509
1972 3712
1972 3447
1972 1236
1972 850
1972 3
1971 4647
1971 3462
1971 3287
1971 2969
1971 1811
1971 844
1971 604
1970 9726
1970 9300
1970 8235
1970 8148
1970 7288
1970 7171
1970 6763
1970 6516
1970 5799
1970 5637
1970 5257
1970 5076
1970 4985
1970 4339
1970 3443
1970 3228
1970 3122
1970 2998
1970 2914
1970 2873
1970 2705
1970 2684
1970 2354
1970 708
1970 187
1970 45
1969 7951
1969 4589
1969 4063
1969 2582
1969 434
1969 174
1969 65
1968 9366
1968 6499
1968 3940
1968 3477
1968 1375
1968 984
1968 700
1967 738
1967 589
1967 263
1966 5782
1966 4536
1966 3860
1966 1692
1966 1326
1966 673
1965 8930
1965 8808
1965 7665
1965 6504
1965 4706
1965 2212
1965 2015
1965 1985
1965 1704
1965 142
1965 50
1964 1781
1964 94
1964 23
1963 8059
1963 7735
1963 7292
1963 2418
1963 2389
1963 2230
1963 2105
1963 1471
1963 581
1963 47
1962 3392
1962 2279
1962 1151
1962 1072
1962 615
1961 9098
1961 5433
1961 3560
1961 1253
1961 724
1961 138
1960 9117
1960 7394
1960 5742
1960 3859
1960 1580
1960 95
1960 67
1959 9028
1959 8871
1959 3502
1959 1387
1959 1307
1959 255
1958 8103
1958 1574
1958 497
1958 0
1957 8584
1957 3387
1957 1410
1957 1207
1957 126
1956 6326
1956 4670
1956 3821
1956 470
1956 328
1956 88
1955 9295
1955 4867
1955 3089
1955 1330
1955 990
1955 606
1954 4695
1954 2129
1954 1554
1954 1265
1954 332
1953 6438
1953 1124
1953 37
1953 0
1952 1776
1952 244
1952 113
1951 2020
1951 1836
1951 370
1951 88
1950 9066
1950 8170
1950 5565
1950 4994
1950 3377
1950 2685
1950 2361
1950 2167
1950 2083
1950 1995
1950 1263
1950 285
1950 202
1949 9808
1949 6526
1949 3987
1949 3304
1949 3236
1949 2975
1949 2518
1949 2407
1949 1599
1949 656
1949 1
1948 6797
1948 3558
1948 3223
1948 3086
1948 1001
1948 369
1948 274
1947 7292
1947 6074
1947 5493
1947 4509
1947 2287
1947 1458
1947 1294
1947 736
1946 6315
1946 5825
1946 4113
1946 3886
1946 3771
1946 2874
1946 1043
1946 918
1946 370
1945 8201
1945 6282
1945 6271
1945 5177
1945 4633
1945 4423
1945 3533
1945 1150
1945 824
1945 0
1944 9824
1944 6744
1944 478
1944 55
1944 11
1943 1853
1943 57
1943 26
1942 9000
1942 8746
1942 8550
1942 7323
1942 6298
1942 5826
1942 5820
1942 5369
1942 5161
1942 4195
1942 4037
1942 3418
1942 2066
1942 2056
1942 1022
1942 856
1942 50
1941 8235
1941 5634
1941 3178
1941 1974
1941 1736
1941 1492
1941 819
1940 7930
1940 860
1940 307
1940 263
1939 5985
1939 1851
1939 1113
1939 4
1938 2973
1938 2476
1938 1266
1938 862
1938 347
1937 9210
1937 7709
1937 654
1937 581
1937 204
1936 7852
1936 5592
1936 4284
1936 4086
1936 3287
1936 2993
1936 368
1936 110
1936 102
1935 6831
1935 4658
1935 3444
1935 3043
1935 2924
1935 2827
1935 1615
1935 156
1935 139
1934 9002
1934 8581
1934 8266
1934 5690
1934 4870
1934 4207
1934 3595
1934 2146
1934 1135
1934 23
1934 2
1933 8432
1933 5835
1933 5652
1933 4821
1933 2865
1933 1897
1933 1573
1933 207
1932 7533
1932 5522
1932 762
1932 358
1932 3
1931 9378
1931 2322
1931 1921
1931 697
1931 192
1930 4730
1930 4527
1930 3802
1930 3688
1930 3338
1930 2748
1930 2552
1930 586
1930 106
1930 1
1929 9779
1929 3737
1929 1124
1929 255
1929 28
1928 8243
1928 6959
1928 5802
1928 4106
1928 3752
1928 1831
1928 176
1928 99
1927 6820
1927 1650
1927 1315
1927 102
1926 724
1926 504
1926 3
1925 7668
1925 7628
1925 7491
1925 6790
1925 3704
1925 797
1925 607
1925 150
1924 8349
1924 4894
1924 4258
1924 2221
1924 1318
1924 288
1924 35
1923 6564
1923 668
1923 302
1923 99
1922 702
1922 98
1922 10
1921 8147
1921 4108
1921 1931
1921 1652
1921 1509
1921 825
1920 6904
1920 2857
1920 702
1920 271
1920 118
1919 4941
1919 683
1919 540
1919 224
1918 7316
1918 5788
1918 5659
1918 5087
1918 3771
1918 2696
1918 2006
1918 1792
1918 619
1918 185
1917 7096
1917 1807
1917 1021
1917 770
1916 5978
1916 3176
1916 473
1916 286
1916 23
1915 572
1915 164
1915 89
1914 9382
1914 7931
1914 6410
1914 2984
1914 2503
1914 2375
1914 496
1914 174
1914 5
1913 643
1913 69
1913 17
1912 1615
1912 1571
1912 733
1911 1485
1911 1271
1911 395
1910 7545
1910 6778
1910 3499
1910 2102
1910 288
1910 147
1910 7
1909 6968
1909 3270
1909 2641
1909 1404
1909 200
1909 176
1908 2525
1908 1631
1908 535
1908 16
1907 416
1907 376
1907 80
1906 9587
1906 8371
1906 6819
1906 4948
1906 4670
1906 4048
1906 2457
1906 1287
1906 851
1906 303
1905 1246
1905 1123
1905 607
1904 7130
1904 4889
1904 692
1904 486
1904 131
1903 9366
1903 5966
1903 3387
1903 1982
1903 1395
1903 1366
1903 1156
1902 6296
1902 1750
1902 926
1902 306
1901 5973
1901 2026
1901 887
1901 606
1901 7
1900 4391
1900 1681
1900 264
1900 12
1899 5721
1899 2441
1899 1881
1899 1492
1899 6
1898 1518
1898 1015
1898 212
1897 8559
1897 7276
1897 3049
1897 2949
1897 2244
1897 1977
1897 1933
1897 928
1897 814
1897 92
1896 3941
1896 1020
1896 67
1896 27
1895 410
1895 168
1895 83
1894 9380
1894 5552
1894 5449
1894 1193
1894 252
1894 0
1893 8431
1893 8393
1893 7898
1893 5520
1893 3543
1893 3189
1893 1106
1893 934
1893 2
1892 9959
1892 6454
1892 5020
1892 4678
1892 4600
1892 4151
1892 3320
1892 3118
1892 832
1892 444
1892 203
1891 7580
1891 6085
1891 3990
1891 3145
1891 2285
1891 861
1891 242
1891 127
1890 8109
1890 6626
1890 4768
1890 2890
1890 2408
1890 1699
1890 1523
1890 7
1889 5434
1889 5155
1889 862
1889 513
1889 0
1888 7736
1888 6461
1888 5971
1888 5266
1888 1597
1888 23
1888 7
1887 9351
1887 8290
1887 4627
1887 4481
1887 4269
1887 2051
1887 958
1887 664
1887 498
1886 3390
1886 2417
1886 1758
1886 223
1886 60
1885 8648
1885 4489
1885 3196
1885 1615
1885 106
1885 100
1884 382
1884 109
1884 7
1883 9690
1883 8665
1883 8502
1883 5574
1883 5074
1883 4804
1883 3833
1883 3220
1883 2567
1883 2548
1883 424
1883 407
1883 9
1882 2906
1882 2407
1882 2143
1882 2013
1882 1698
1882 1390
1882 444
1881 5090
1881 2786
1881 1899
1881 1127
1881 393
1881 13
1880 6604
1880 4104
1880 3632
1880 2253
1880 1209
1880 1127
1880 181
1879 9322
1879 7632
1879 6481
1879 5943
1879 5306
1879 5228
1879 4468
1879 4460
1879 4294
1879 2469
1879 1759
1879 29
1879 20
1878 6888
1878 4998
1878 2260
1878 1839
1878 1252
1878 155
1877 8224
1877 5676
1877 4625
1877 3331
1877 97
1877 7
1877 5
1876 9244
1876 1652
1876 39
1876 2
1875 8539
1875 7143
1875 4447
1875 3021
1875 2788
1875 1151
1875 671
1875 146
1874 6872
1874 4956
1874 4762
1874 1342
1874 356
1874 122
1873 8189
1873 8121
1873 6286
1873 4152
1873 806
1873 422
1873 378
1872 3872
1872 3326
1872 2647
1872 2430
1872 1124
1872 267
1872 117
1871 7741
1871 7313
1871 7139
1871 2489
1871 2172
1871 501
1871 153
1871 7
1870 4177
1870 1444
1870 881
1870 812
1869 7520
1869 6464
1869 3922
1869 2945
1869 1238
1869 246
1869 7
1868 7020
1868 4704
1868 1107
1868 77
1868 12
1867 9410
1867 3568
1867 1750
1867 1332
1867 388
1866 9994
1866 7889
1866 7057
1866 6588
1866 4036
1866 3280
1866 3082
1866 2889
1866 2884
1866 2853
1866 417
1866 223
1866 166
1865 3671
1865 3520
1865 2265
1865 2015
1865 1366
1865 849
1865 30
1864 8660
1864 8651
1864 6535
1864 6473
1864 3851
1864 2576
1864 1801
1864 1795
1864 9
1863 2862
1863 2248
1863 1386
1863 199
1863 61
1862 1460
1862 963
1862 695
1861 2006
1861 39
1861 37
1861 12
1860 7460
1860 6963
1860 4239
1860 4022
1860 3970
1860 1386
1860 949
1860 534
1859 6449
1859 5999
1859 2763
1859 870
1859 113
1859 45
1858 9590
1858 4322
1858 3523
1858 674
1858 19
1858 9
1857 1090
1857 1025
1857 146
1856 8362
1856 4900
1856 2594
1856 1432
1856 1069
1856 686
1855 8822
1855 7025
1855 3602
1855 3447
1855 3287
1855 332
1855 231
1855 184
1854 504
1854 266
1854 4
1853 8501
1853 7397
1853 3941
1853 2347
1853 1943
1853 725
1853 558
1853 455
1852 5817
1852 1800
1852 763
1852 80
1851 7382
1851 6655
1851 6232
1851 5784
1851 5299
1851 5219
1851 1939
1851 1197
1851 117
1851 26
1850 7900
1850 845
1850 193
1850 153
1849 6898
1849 6721
1849 6245
1849 5773
1849 5199
1849 2802
1849 310
1849 260
1849 222
1848 7678
1848 1410
1848 1020
1848 45
1847 8187
1847 7545
1847 5822
1847 5776
1847 2567
1847 2259
1847 289
1847 260
1847 224
1846 9579
1846 8769
1846 8035
1846 7997
1846 4298
1846 1349
1846 960
1846 10
1845 9154
1845 5825
1845 4342
1845 1669
1845 353
1845 2
1844 8623
1844 3092
1844 672
1844 290
1844 80
1843 8547
1843 6487
1843 5765
1843 4598
1843 3024
1843 1131
1843 510
1843 474
1842 5817
1842 5075
1842 4276
1842 3549
1842 3273
1842 2126
1842 659
1842 444
1842 347
1841 7510
1841 4949
1841 3407
1841 2190
1841 1234
1841 441
1841 300
1840 9964
1840 9561
1840 5946
1840 217
1840 85
1840 71
1839 9679
1839 4461
1839 4397
1839 4081
1839 3205
1839 1878
1839 503
1839 352
1839 237
1838 9206
1838 8816
1838 5336
1838 1642
1838 1513
1838 557
1837 6540
1837 3716
1837 3524
1837 2901
1837 2429
1837 1633
1837 995
1837 97
1836 6448
1836 5159
1836 4889
1836 3290
1836 3019
1836 2485
1836 2097
1836 2065
1836 1951
1836 414
1836 341
1836 125
1835 9094
1835 1335
1835 208
1835 3
1834 7227
1834 3504
1834 2472
1834 1004
1834 255
1834 1
1833 8891
1833 4415
1833 1219
1833 119
1833 29
1832 8841
1832 576
1832 331
1832 38
1831 9562
1831 9507
1831 9399
1831 8360
1831 8188
1831 7938
1831 4964
1831 4917
1831 3973
1831 3645
1831 3333
1831 2678
1831 1981
1831 1928
1831 1585
1831 363
1831 153
1830 442
1830 377
1830 129
1829 5712
1829 2300
1829 812
1829 19
1829 0
1828 1029
1828 870
1828 836
1827 4556
1827 4253
1827 3692
1827 784
1827 161
1827 7
1826 7835
1826 5316
1826 3942
1826 2957
1826 954
1826 818
1826 7
1825 8581
1825 7478
1825 613
1825 480
1825 83
1824 9798
1824 8132
1824 8068
1824 6923
1824 2895
1824 2511
1824 2266
1824 1682
1824 970
1824 110
1823 1135
1823 260
1823 0
1822 5580
1822 4301
1822 1670
1822 1661
1822 133
1821 7099
1821 6458
1821 5993
1821 1520
1821 271
1821 168
1820 9685
1820 7859
1820 4620
1820 3469
1820 3334
1820 2810
1820 1427
1820 841
1820 823
1819 8975
1819 8461
1819 5492
1819 4919
1819 4791
1819 4162
1819 3982
1819 3575
1819 2172
1819 1723
1819 818
1819 350
1818 9632
1818 6810
1818 3745
1818 3539
1818 827
1818 72
1818 45
1817 6324
1817 675
1817 105
1817 99
1816 7498
1816 5622
1816 5429
1816 1081
1816 394
1816 33
1815 9193
1815 3039
1815 1095
1815 931
1815 592
1814 1704
1814 1593
1814 555
1813 9720
1813 2782
1813 2164
1813 1150
1813 861
1813 345
1812 8956
1812 7731
1812 4913
1812 2529
1812 824
1812 392
1812 388
1811 7146
1811 3647
1811 1975
1811 1971
1811 1128
1811 451
1811 139
1810 1083
1810 765
1810 4
1809 4407
1809 2625
1809 1205
1809 558
1809 293
1808 7331
1808 1099
1808 796
1808 474
1807 7219
1807 1917
1807 1752
1807 850
1807 228
1806 9864
1806 6975
1806 3436
1806 2565
1806 869
1806 697
1806 613
1805 9419
1805 8741
1805 8411
1805 7630
1805 6432
1805 5363
1805 4115
1805 3916
1805 550
1805 392
1805 193
1804 1432
1804 178
1804 4
1803 3412
1803 3302
1803 1316
1803 1257
1803 91
1802 9366
1802 6529
1802 679
1802 67
1802 0
1801 9856
1801 9522
1801 9299
1801 9111
1801 9023
1801 5976
1801 5624
1801 5152
1801 4518
1801 2449
1801 2068
1801 1864
1801 1701
1801 1135
1801 748
1800 9911
1800 7009
1800 1852
1800 422
1800 55
1800 47
1799 8034
1799 2550
1799 867
1799 303
1799 28
1798 7047
1798 4930
1798 1214
1798 956
1798 670
1797 4130
1797 3139
1797 947
1797 813
1797 138
1796 7411
1796 4947
1796 1758
1796 1234
1796 138
1795 8779
1795 4134
1795 1864
1795 123
1795 120
1795 105
1794 9913
1794 8500
1794 6182
1794 4720
1794 3156
1794 2994
1794 2937
1794 977
1794 527
1794 26
1793 7256
1793 1202
1793 818
1793 156
1792 2606
1792 2557
1792 2065
1792 1918
1792 721
1792 375
1792 27
1791 9602
1791 9205
1791 7078
1791 5309
1791 4400
1791 3232
1791 1593
1791 258
1791 228
1790 9333
1790 1311
1790 150
1790 28
1789 8020
1789 3615
1789 1545
1789 928
1789 63
1788 8853
1788 520
1788 489
1788 328
1787 5662
1787 5589
1787 5023
1787 3589
1787 2369
1787 1313
1787 177
1787 134
1786 9669
1786 8520
1786 7844
1786 6863
1786 5991
1786 4744
1786 4168
1786 4133
1786 3333
1786 2738
1786 2595
1786 2465
1786 1988
1786 1250
1786 1205
1786 534
1785 6193
1785 1223
1785 1140
1785 260
1784 8421
1784 6709
1784 4226
1784 3451
1784 2021
1784 953
1784 145
1784 46
1783 5626
1783 824
1783 624
1783 542
1782 8127
1782 7578
1782 6455
1782 6055
1782 6053
1782 5835
1782 5032
1782 3438
1782 2563
1782 2450
1782 2297
1782 1043
1782 244
1782 10
1781 7912
1781 7280
1781 4383
1781 2521
1781 2325
1781 1964
1781 1026
1781 37
1781 26
1780 6626
1780 393
1780 204
1780 14
1779 8810
1779 8807
1779 3409
1779 3112
1779 3100
1779 2289
1779 2210
1779 1561
1779 661
1779 120
1778 7207
1778 3766
1778 736
1778 332
1778 251
1777 7669
1777 5326
1777 1107
1777 972
1777 14
1776 1952
1776 1743
1776 216
1776 142
1775 9325
1775 9020
1775 8555
1775 6883
1775 6868
1775 6368
1775 5303
1775 4847
1775 4646
1775 4467
1775 2456
1775 612
1775 317
1775 7
1774 6769
1774 5577
1774 4959
1774 4370
1774 4025
1774 901
1774 240
1774 64
1773 4093
1773 1557
1773 1430
1773 540
1772 784
1772 317
1772 207
1771 7170
1771 7028
1771 1597
1771 1535
1771 66
1770 4702
1770 4250
1770 2953
1770 2941
1770 1623
1770 17
1770 3
1769 569
1769 186
1769 0
1768 6353
1768 6141
1768 6077
1768 5419
1768 5316
1768 5010
1768 3906
1768 3589
1768 2852
1768 77
1768 24
1768 11
1767 9362
1767 9209
1767 9136
1767 8933
1767 6408
1767 6289
1767 4237
1767 3528
1767 2998
1767 2879
1767 1124
1767 65
1767 28
1766 8739
1766 8495
1766 5734
1766 3577
1766 2454
1766 2150
1766 1229
1766 53
1766 13
1765 1614
1765 1081
1765 53
1764 4655
1764 2063
1764 1171
1764 959
1764 708
1763 7362
1763 5561
1763 4609
1763 2310
1763 1156
1763 1018
1763 599
1762 9743
1762 1519
1762 924
1762 669
1761 2171
1761 1430
1761 1345
1761 277
1760 8366
1760 7542
1760 3583
1760 2297
1760 1122
1760 969
1760 46
1759 7662
1759 6017
1759 3684
1759 1879
1759 1670
1759 1454
1759 8
1758 7872
1758 3022
1758 2848
1758 2255
1758 1886
1758 1796
1758 632
1758 499
1758 414
1757 1015
1757 655
1757 156
1756 9046
1756 5140
1756 4423
1756 2855
1756 2760
1756 2446
1756 954
1756 209
1756 78
1755 9787
1755 7134
1755 7050
1755 6011
1755 5345
1755 4845
1755 1211
1755 915
1755 1
1754 6686
1754 5289
1754 3190
1754 1382
1754 256
1754 72
1753 8724
1753 7953
1753 7166
1753 6840
1753 5603
1753 3911
1753 3048
1753 2282
1753 226
1753 1
1753 0
1752 7295
1752 6541
1752 5870
1752 4111
1752 2368
1752 1807
1752 666
1752 55
1752 2
1751 7117
1751 2700
1751 974
1751 848
1751 688
1750 8847
1750 8750
1750 8210
1750 8040
1750 6802
1750 6771
1750 6657
1750 6185
1750 6094
1750 5317
1750 2079
1750 2042
1750 1902
1750 1867
1750 1375
1750 457
1750 7
1749 9910
1749 7052
1749 5636
1749 4656
1749 4022
1749 2620
1749 454
1749 424
1749 4
1748 7736
1748 7307
1748 1264
1748 600
1748 486
1747 774
1747 115
1747 100
1746 2698
1746 886
1746 252
1746 176
1745 8840
1745 3691
1745 2330
1745 1682
1745 1388
1745 236
1744 7943
1744 7162
1744 6656
1744 1146
1744 199
1744 8
1743 1776
1743 283
1743 171
1743 84
1742 9616
1742 6233
1742 3940
1742 3866
1742 3318
1742 2859
1742 2458
1742 863
1742 634
1742 393
1741 8167
1741 6582
1741 5648
1741 4697
1741 2472
1741 613
1741 79
1741 28
1740 1695
1740 1237
1740 943
1739 6335
1739 2140
1739 775
1739 429
1739 182
1738 9750
1738 5784
1738 5595
1738 5301
1738 4496
1738 893
1738 724
1738 710
1737 5553
1737 5319
1737 3557
1737 3484
1737 1514
1737 723
1737 440
1736 7351
1736 6726
1736 5962
1736 5647
1736 2717
1736 2459
1736 1941
1736 648
1736 612
1736 325
1735 6265
1735 5146
1735 4744
1735 2518
1735 2301
1735 1534
1735 1287
1735 8
1734 8181
1734 7734
1734 5491
1734 1622
1734 753
1734 325
1733 8781
1733 5693
1733 5237
1733 4862
1733 4426
1733 1327
1733 843
1733 72
1732 7516
1732 4138
1732 1315
1732 203
1732 95
1731 9657
1731 1427
1731 720
1731 492
1730 7030
1730 6829
1730 6709
1730 6496
1730 5430
1730 833
1730 241
1730 131
1729 8822
1729 3368
1729 3279
1729 3209
1729 2512
1729 518
1729 324
1729 199
1728 8488
1728 8301
1728 5933
1728 5557
1728 392
1728 318
1728 15
1727 5109
1727 1275
1727 644
1727 243
1726 2524
1726 1720
1726 1512
1726 122
1725 8150
1725 7685
1725 6674
1725 5295
1725 3765
1725 2708
1725 150
1725 141
1725 6
1724 5724
1724 4887
1724 2264
1724 1004
1724 816
1724 64
1723 6797
1723 3116
1723 1819
1723 1398
1723 1170
1723 7
1722 9086
1722 8266
1722 3922
1722 3674
1722 3199
1722 866
1722 496
1722 199
1721 9163
1721 1978
1721 1709
1721 1427
1721 577
1720 7490
1720 5974
1720 5826
1720 4428
1720 3737
1720 3463
1720 3339
1720 2224
1720 1726
1720 1397
1720 23
1720 15
1719 5103
1719 845
1719 391
1719 165
1718 7468
1718 1255
1718 138
1718 4
1717 1164
1717 940
1717 52
1716 9387
1716 9174
1716 5110
1716 4834
1716 2923
1716 2394
1716 2057
1716 1099
1716 764
1716 457
1715 8685
1715 6094
1715 3133
1715 2438
1715 2272
1715 1640
1715 529
1715 5
1714 6808
1714 5763
1714 3628
1714 1664
1714 698
1714 356
1713 6974
1713 910
1713 72
1713 21
1712 4986
1712 1148
1712 699
1712 10
1711 8402
1711 8150
1711 5679
1711 2687
1711 2156
1711 343
1711 204
1711 29
1710 5853
1710 4617
1710 3183
1710 1463
1710 360
1710 66
1709 5945
1709 2135
1709 1721
1709 1246
1709 349
1709 20
1708 8415
1708 3089
1708 2338
1708 1263
1708 1047
1708 837
1707 8309
1707 7753
1707 6733
1707 5086
1707 4187
1707 3676
1707 222
1707 169
1707 117
1706 9150
1706 7670
1706 5884
1706 3557
1706 3198
1706 2419
1706 2099
1706 2095
1706 182
1706 144
1706 41
1705 1551
1705 361
1705 79
1704 9010
1704 8398
1704 8388
1704 7842
1704 6878
1704 6492
1704 4889
1704 3777
1704 3629
1704 3476
1704 2686
1704 2510
1704 2388
1704 2115
1704 2077
1704 1965
1704 1814
1704 1429
1704 728
1704 203
1703 7875
1703 4737
1703 2673
1703 351
1703 156
1703 11
1702 9067
1702 3972
1702 2646
1702 1183
1702 836
1702 149
1701 1801
1701 1574
1701 862
1701 709
1700 7725
1700 542
1700 380
1700 265
1699 8573
1699 8312
1699 7250
1699 6542
1699 6524
1699 6045
1699 4660
1699 4488
1699 4419
1699 3112
1699 2903
1699 2772
1699 2568
1699 2267
1699 1890
1699 1195
1699 524
1699 174
1698 9861
1698 9070
1698 6431
1698 5960
1698 3474
1698 2771
1698 1882
1698 1615
1698 1515
1698 1395
1697 4880
1697 4387
1697 439
1697 184
1697 55
1696 5268
1696 1564
1696 316
1696 263
1695 9480
1695 8971
1695 8686
1695 7806
1695 7660
1695 6378
1695 1740
1695 255
1695 125
1695 4
1694 8987
1694 4360
1694 2921
1694 1341
1694 227
1694 214
1693 1294
1693 609
1693 387
1692 5232
1692 3733
1692 2787
1692 2166
1692 1966
1692 1551
1692 843
1692 345
1691 8101
1691 5432
1691 5281
1691 4985
1691 4111
1691 3506
1691 3472
1691 3211
1691 2892
1691 1182
1691 945
1691 14
1690 5788
1690 5254
1690 2530
1690 1184
1690 826
1690 4
1689 9054
1689 7416
1689 6186
1689 5831
1689 5791
1689 2624
1689 1529
1689 1521
1689 282
1688 9491
1688 5217
1688 4275
1688 3950
1688 958
1688 356
1688 9
1687 8805
1687 8435
1687 5187
1687 4923
1687 3916
1687 1400
1687 210
1687 16
1686 7628
1686 6738
1686 4667
1686 2185
1686 870
1686 747
1686 165
1685 3585
1685 3045
1685 430
1685 153
1685 57
1684 2255
1684 1069
1684 350
1684 56
1683 8158
1683 4775
1683 3457
1683 705
1683 284
1683 46
1682 7337
1682 7206
1682 7060
1682 6661
1682 5141
1682 3415
1682 3230
1682 2829
1682 2796
1682 2726
1682 2656
1682 2015
1682 1824
1682 1745
1682 1216
1682 1046
1682 420
1681 9088
1681 8423
1681 7445
1681 3695
1681 2707
1681 1900
1681 470
1681 194
1681 38
1680 9945
1680 5145
1680 2592
1680 1597
1680 392
1680 285
1679 8368
1679 7673
1679 5117
1679 4998
1679 1056
1679 612
1679 62
1678 9522
1678 9428
1678 8361
1678 5844
1678 4199
1678 2536
1678 2288
1678 1615
1678 1408
1678 193
1677 8813
1677 7966
1677 3772
1677 1412
1677 749
1677 390
1676 4650
1676 3375
1676 3214
1676 2466
1676 1134
1676 3
1676 0
1675 8963
1675 8817
1675 7429
1675 7285
1675 6038
1675 2942
1675 639
1675 601
1675 506
1674 8621
1674 8077
1674 7617
1674 6606
1674 6214
1674 3106
1674 3074
1674 971
1674 555
1674 4
1673 6284
1673 995
1673 19
1673 8
1672 9387
1672 5135
1672 3118
1672 2231
1672 1395
1672 539
1672 132
1671 7545
1671 6859
1671 6650
1671 5871
1671 5085
1671 4963
1671 4015
1671 2909
1671 1095
1671 501
1671 107
1670 9187
1670 8610
1670 7891
1670 7610
1670 6734
1670 5990
1670 5259
1670 4414
1670 3044
1670 2343
1670 2132
1670 1822
1670 1759
1670 1266
1670 20
1670 5
1669 8195
1669 2931
1669 2892
1669 2545
1669 1845
1669 581
1669 478
1669 10
1668 9166
1668 9065
1668 6241
1668 3535
1668 2254
1668 2241
1668 167
1668 157
1668 135
1667 9043
1667 8902
1667 7633
1667 5672
1667 5139
1667 4080
1667 3979
1667 3767
1667 3371
1667 1148
1667 1082
1667 294
1666 9953
1666 9047
1666 2004
1666 1385
1666 1000
1666 304
1665 6343
1665 2441
1665 1135
1665 779
1665 672
1664 9264
1664 9148
1664 9091
1664 8544
1664 6299
1664 6209
1664 6086
1664 3932
1664 3676
1664 3668
1664 3611
1664 3424
1664 2554
1664 2527
1664 1714
1664 260
1664 227
1664 207
1663 7677
1663 6476
1663 5400
1663 3420
1663 3272
1663 1444
1663 1061
1663 521
1662 6366
1662 1538
1662 1500
1662 1435
1661 6891
1661 1822
1661 816
1661 166
1661 163
1660 6740
1660 5651
1660 3077
1660 2145
1660 140
1660 72
1660 9
1659 573
1659 335
1659 14
1658 9563
1658 8072
1658 8069
1658 7385
1658 6085
1658 5775
1658 5051
1658 4904
1658 4596
1658 3816
1658 3137
1658 2933
1658 2587
1658 2445
1658 1126
1658 445
1658 76
1657 8934
1657 6651
1657 6166
1657 2073
1657 798
1657 603
1657 153
1656 9053
1656 3300
1656 830
1656 305
1656 0
1655 7081
1655 6700
1655 4760
1655 4685
1655 4401
1655 3826
1655 3192
1655 171
1655 63
1655 26
1654 8053
1654 6405
1654 5821
1654 5812
1654 4774
1654 2227
1654 1449
1654 644
1654 157
1653 7716
1653 6180
1653 4819
1653 3100
1653 141
1653 127
1653 3
1652 8309
1652 7173
1652 5393
1652 5248
1652 1921
1652 1876
1652 1282
1652 677
1652 139
1651 6970
1651 6640
1651 6629
1651 5921
1651 5171
1651 4820
1651 2783
1651 2185
1651 1062
1651 107
1651 31
1650 9637
1650 9549
1650 8849
1650 8797
1650 8320
1650 7386
1650 5236
1650 5099
1650 5016
1650 4767
1650 4381
1650 4219
1650 3976
1650 3736
1650 3467
1650 2975
1650 2462
1650 2444
1650 1927
1650 958
1650 953
1650 24
1649 6943
1649 4382
1649 4348
1649 2313
1649 2200
1649 1165
1649 922
1649 449
1648 9036
1648 8722
1648 8384
1648 7391
1648 6872
1648 6608
1648 6181
1648 4009
1648 3558
1648 3528
1648 3236
1648 2701
1648 2480
1648 2455
1648 2306
1648 748
1648 355
1648 207
1647 9530
1647 8212
1647 5018
1647 4927
1647 4918
1647 4790
1647 4688
1647 4184
1647 3291
1647 563
1647 33
1647 14
1646 8584
1646 3697
1646 2584
1646 2115
1646 2012
1646 502
1646 228
1646 67
1645 8598
1645 7424
1645 6565
1645 4421
1645 1298
1645 1290
1645 883
1644 1359
1644 733
1644 664
1643 1409
1643 193
1643 52
1642 4042
1642 2412
1642 1838
1642 639
1642 39
1642 9
1641 9529
1641 1126
1641 135
1641 92
1640 7465
1640 6792
1640 3530
1640 2518
1640 1715
1640 1127
1640 886
1640 259
1639 8810
1639 8484
1639 7292
1639 6880
1639 6592
1639 6008
1639 4931
1639 3221
1639 3196
1639 2996
1639 2012
1639 1627
1639 609
1639 1
1638 9097
1638 7765
1638 7033
1638 6757
1638 4146
1638 2484
1638 2469
1638 1551
1638 542
1638 2
1637 1487
1637 1213
1637 77
1636 8102
1636 5706
1636 4528
1636 3406
1636 156
1636 154
1636 3
1635 9830
1635 5664
1635 2128
1635 1603
1635 1339
1635 216
1634 7891
1634 7751
1634 6080
1634 5547
1634 5274
1634 5200
1634 3903
1634 3073
1634 2481
1634 2248
1634 966
1634 707
1634 7
1633 8963
1633 7755
1633 7644
1633 6064
1633 5668
1633 3395
1633 1837
1633 1382
1633 736
1633 438
1632 1449
1632 1079
1632 7
1631 5631
1631 5051
1631 1908
1631 303
1631 224
1631 141
1630 3740
1630 2962
1630 2544
1630 209
1630 55
1630 8
1629 8502
1629 8095
1629 7285
1629 2170
1629 1055
1629 909
1629 694
1628 9600
1628 9008
1628 3920
1628 1250
1628 935
1628 184
1627 7395
1627 3381
1627 2882
1627 2137
1627 2107
1627 1639
1627 1451
1627 495
1627 55
1626 6967
1626 5461
1626 3712
1626 187
1626 92
1626 14
1625 5847
1625 2813
1625 170
1625 52
1625 15
1624 8065
1624 4492
1624 495
1624 241
1624 3
1623 9452
1623 5009
1623 4978
1623 3753
1623 3551
1623 3193
1623 2842
1623 2339
1623 2130
1623 1770
1623 709
1623 638
1623 621
1622 8207
1622 7177
1622 6168
1622 5134
1622 1734
1622 560
1622 380
1622 7
1621 8226
1621 3536
1621 2980
1621 1306
1621 600
1621 100
1620 8296
1620 638
1620 424
1620 285
1619 5971
1619 1373
1619 670
1619 76
1618 7528
1618 689
1618 51
1618 46
1617 8011
1617 3991
1617 1114
1617 584
1617 45
1616 6727
1616 5225
1616 4810
1616 3237
1616 2558
1616 972
1616 148
1616 108
1615 9895
1615 9365
1615 9335
1615 8696
1615 8571
1615 8298
1615 7340
1615 5599
1615 5439
1615 4474
1615 4382
1615 4163
1615 3980
1615 3789
1615 3013
1615 2863
1615 2477
1615 2251
1615 1935
1615 1912
1615 1885
1615 1698
1615 1678
1615 20
1615 19
1615 15
1614 1765
1614 602
1614 108
1614 2
1613 3503
1613 106
1613 102
1613 11
1612 598
1612 192
1612 6
1611 8089
1611 5270
1611 3664
1611 2941
1611 2913
1611 1381
1611 290
1611 6
1610 9595
1610 7674
1610 6730
1610 2947
1610 551
1610 29
1610 8
1609 7220
1609 4040
1609 642
1609 564
1609 349
1608 9705
1608 6824
1608 3889
1608 3864
1608 982
1608 260
1608 1
1607 8807
1607 7979
1607 1568
1607 509
1607 343
1606 7390
1606 3777
1606 1419
1606 265
1606 4
1605 8349
1605 6118
1605 5469
1605 2466
1605 799
1605 91
1605 5
1604 8276
1604 5884
1604 3061
1604 2139
1604 2018
1604 921
1604 549
1604 203
1603 4969
1603 3831
1603 1635
1603 182
1603 135
1603 23
1602 9532
1602 8407
1602 4667
1602 4245
1602 3417
1602 2888
1602 2193
1602 2131
1602 513
1602 422
1602 4
1601 7225
1601 3138
1601 2328
1601 1392
1601 224
1601 58
1600 3766
1600 2687
1600 1050
1600 707
1600 14
1599 9350
1599 8407
1599 7474
1599 6607
1599 6597
1599 1949
1599 713
1599 534
1599 211
1598 6373
1598 3356
1598 2339
1598 934
1598 192
1598 114
1597 9356
1597 8983
1597 8335
1597 4996
1597 3824
1597 3646
1597 1888
1597 1771
1597 1680
1597 1592
1597 1127
1597 774
1596 808
1596 508
1596 45
1595 6737
1595 5663
1595 4865
1595 1406
1595 1089
1595 294
1594 9712
1594 9571
1594 7568
1594 7441
1594 7173
1594 6912
1594 5825
1594 4989
1594 4371
1594 4094
1594 3816
1594 3449
1594 3127
1594 2316
1594 2245
1594 1200
1594 1149
1594 89
1593 9750
1593 9492
1593 8837
1593 7257
1593 5905
1593 5442
1593 2570
1593 2017
1593 1814
1593 1791
1593 999
1593 981
1593 285
1592 9404
1592 4935
1592 4529
1592 2699
1592 2421
1592 1597
1592 589
1592 386
1592 253
1591 8177
1591 7577
1591 7240
1591 6327
1591 4647
1591 3979
1591 3965
1591 3152
1591 2904
1591 2395
1591 381
1591 247
1591 4
1590 7801
1590 7094
1590 5479
1590 4347
1590 1341
1590 923
1590 606
1589 9763
1589 7158
1589 1994
1589 984
1589 80
1589 0
1588 8238
1588 6435
1588 5257
1588 4516
1588 386
1588 325
1588 110
1587 9889
1587 7835
1587 3091
1587 3058
1587 1347
1587 881
1587 93
1586 9332
1586 6457
1586 4615
1586 2924
1586 845
1586 723
1586 530
1585 8928
1585 2658
1585 1831
1585 355
1585 6
1585 0
1584 9033
1584 6424
1584 6207
1584 5968
1584 4972
1584 3426
1584 2603
1584 2271
1584 1049
1584 1000
1584 157
1583 6642
1583 5674
1583 3647
1583 2901
1583 2838
1583 964
1583 642
1583 61
1582 424
1582 169
1582 91
1581 8297
1581 6194
1581 3140
1581 2473
1581 2407
1581 2191
1581 2056
1581 998
1581 413
1581 3
1580 9230
1580 4763
1580 4155
1580 2926
1580 2860
1580 2031
1580 1960
1580 1505
1580 1098
1580 207
1579 1264
1579 1023
1579 949
1578 7692
1578 7042
1578 6853
1578 5729
1578 5616
1578 5520
1578 5275
1578 4027
1578 507
1578 50
1578 37
1577 8772
1577 3594
1577 3257
1577 3112
1577 3019
1577 863
1577 576
1577 7
1576 9184
1576 8901
1576 7523
1576 6646
1576 5904
1576 5812
1576 5433
1576 634
1576 120
1576 78
1575 9590
1575 8300
1575 7334
1575 5772
1575 2759
1575 2102
1575 1198
1575 141
1575 30
1574 8458
1574 8334
1574 7090
1574 5135
1574 1958
1574 1701
1574 728
1574 670
1574 38
1573 9566
1573 7567
1573 6363
1573 3207
1573 1933
1573 203
1573 113
1573 26
1572 9424
1572 4322
1572 3546
1572 169
1572 9
1572 7
1571 9866
1571 7310
1571 5147
1571 3817
1571 2184
1571 1912
1571 1046
1571 1016
1571 697
1570 8277
1570 2939
1570 2621
1570 2003
1570 1562
1570 957
1570 441
1569 7591
1569 2846
1569 655
1569 176
1569 131
1568 9485
1568 8832
1568 5984
1568 5640
1568 4351
1568 3876
1568 3576
1568 2990
1568 1607
1568 638
1568 411
1568 8
1567 8571
1567 6474
1567 1210
1567 986
1567 140
1566 9738
1566 4634
1566 4095
1566 995
1566 791
1566 38
1565 2134
1565 2029
1565 1496
1565 325
1565 42
1564 9588
1564 8973
1564 7331
1564 6218
1564 4444
1564 3840
1564 3167
1564 1696
1564 809
1564 213
1564 12
1563 7010
1563 6280
1563 873
1563 611
1563 438
1562 5324
1562 5119
1562 3170
1562 1570
1562 1417
1562 264
1562 43
1561 9599
1561 5525
1561 1779
1561 856
1561 832
1561 313
1560 7389
1560 5303
1560 375
1560 11
1560 8
1559 5348
1559 1146
1559 528
1559 337
1558 5946
1558 3850
1558 1492
1558 634
1558 529
1557 6948
1557 1773
1557 984
1557 158
1557 125
1556 9676
1556 8674
1556 7494
1556 6966
1556 6518
1556 5208
1556 3749
1556 2108
1556 1379
1556 77
1556 5
1555 8446
1555 4919
1555 4747
1555 2641
1555 2106
1555 934
1555 274
1555 0
1554 6084
1554 3430
1554 1954
1554 633
1554 199
1554 7
1553 8786
1553 4024
1553 3131
1553 2373
1553 1255
1553 496
1553 125
1552 5330
1552 739
1552 502
1552 258
1551 9786
1551 6986
1551 4201
1551 3121
1551 2587
1551 2087
1551 1705
1551 1692
1551 1638
1551 655
1551 456
1551 45
1550 9948
1550 9029
1550 3505
1550 2464
1550 2311
1550 2117
1550 375
1550 32
1550 20
1549 683
1549 306
1549 33
1548 9388
1548 752
1548 671
1548 64
1547 1378
1547 1250
1547 58
1546 9321
1546 7651
1546 4725
1546 4506
1546 1289
1546 387
1546 16
1545 8796
1545 7943
1545 6363
1545 3456
1545 2152
1545 1789
1545 1331
1545 947
1545 265
1544 6216
1544 2876
1544 1407
1544 599
1544 380
1543 510
1543 290
1543 7
1542 6147
1542 5314
1542 3004
1542 1360
1542 790
1542 260
1541 4552
1541 3882
1541 3826
1541 3561
1541 2700
1541 1109
1541 964
1541 67
1540 884
1540 502
1540 15
1539 7475
1539 4446
1539 2762
1539 871
1539 326
1539 3
1538 8120
1538 8107
1538 6284
1538 5805
1538 4097
1538 3394
1538 2694
1538 1662
1538 568
1538 559
1538 389
1537 456
1537 285
1537 4
1536 872
1536 292
1536 11
1535 7606
1535 6289
1535 5713
1535 2392
1535 1771
1535 388
1535 259
1535 32
1534 8910
1534 1735
1534 300
1534 50
1534 0
1533 9581
1533 8633
1533 1462
1533 755
1533 206
1532 9397
1532 9170
1532 7372
1532 4514
1532 4182
1532 1417
1532 651
1532 117
1531 8286
1531 7145
1531 5795
1531 5597
1531 5553
1531 4703
1531 4188
1531 4142
1531 3386
1531 2600
1531 2513
1531 2103
1531 840
1531 634
1531 63
1530 9560
1530 8593
1530 7193
1530 3951
1530 2735
1530 470
1530 456
1530 149
1529 9186
1529 3427
1529 1689
1529 1113
1529 537
1529 11
1528 9191
1528 4243
1528 1317
1528 57
1528 37
1527 9917
1527 8311
1527 4035
1527 622
1527 551
1527 0
1526 8469
1526 5680
1526 3706
1526 2386
1526 921
1526 683
1526 367
1525 2808
1525 808
1525 754
1525 0
1524 8222
1524 6690
1524 4222
1524 3657
1524 442
1524 46
1524 16
1523 5392
1523 5246
1523 3562
1523 2691
1523 1890
1523 1154
1523 187
1523 84
1522 5577
1522 4098
1522 168
1522 19
1522 2
1521 6082
1521 4515
1521 4271
1521 3215
1521 2632
1521 2225
1521 1689
1521 1313
1521 750
1521 37
1520 8609
1520 7925
1520 7404
1520 7063
1520 6915
1520 6435
1520 6185
1520 6059
1520 5987
1520 5787
1520 5456
1520 3958
1520 3456
1520 3252
1520 3242
1520 2303
1520 2210
1520 1821
1520 176
1520 120
1520 111
1519 9640
1519 3731
1519 2643
1519 1762
1519 935
1519 478
1519 459
1518 9766
1518 7376
1518 1898
1518 1349
1518 146
1518 11
1517 5343
1517 2133
1517 1993
1517 779
1517 260
1517 246
1516 7452
1516 2521
1516 1411
1516 20
1516 11
1515 8046
1515 7391
1515 7326
1515 6626
1515 6322
1515 4849
1515 3652
1515 1698
1515 1102
1515 124
1515 50
1514 9718
1514 6730
1514 2512
1514 1737
1514 190
1514 118
1514 37
1513 7989
1513 6518
1513 3310
1513 2601
1513 1838
1513 144
1513 55
1513 4
1512 9990
1512 7903
1512 7630
1512 6817
1512 6774
1512 4695
1512 3630
1512 3578
1512 3219
1512 2986
1512 1726
1512 1228
1512 976
1512 16
1511 9892
1511 4385
1511 959
1511 215
1511 55
1510 8430
1510 6201
1510 4352
1510 1351
1510 803
1510 52
1509 8184
1509 3656
1509 1921
1509 654
1509 232
1509 58
1508 7900
1508 7087
1508 3861
1508 2938
1508 611
1508 102
1508 4
1507 8588
1507 5423
1507 2109
1507 1075
1507 198
1507 192
1506 8674
1506 6347
1506 5068
1506 4974
1506 4734
1506 3831
1506 3580
1506 2045
1506 1094
1506 916
1506 34
1505 2075
1505 1580
1505 381
1505 38
1505 1
1504 3925
1504 3878
1504 981
1504 264
1504 232
1503 9737
1503 8976
1503 7281
1503 4997
1503 4070
1503 3660
1503 3644
1503 3310
1503 2181
1503 714
1503 612
1503 236
1502 9465
1502 5952
1502 2033
1502 955
1502 307
1502 199
1501 7708
1501 7489
1501 1025
1501 195
1501 13
1500 6014
1500 3085
1500 1662
1500 873
1500 55
1500 4
1499 6469
1499 5605
1499 3544
1499 546
1499 256
1499 14
1498 9712
1498 1979
1498 1362
1498 459
1498 22
1497 2390
1497 1412
1497 538
1497 16
1496 7823
1496 7396
1496 6741
1496 3218
1496 2658
1496 2028
1496 1565
1496 114
1496 9
1496 4
1495 9485
1495 8370
1495 7638
1495 6738
1495 6621
1495 3690
1495 2574
1495 2062
1495 740
1495 375
1495 37
1494 9800
1494 8783
1494 5025
1494 2949
1494 2284
1494 2268
1494 2082
1494 1275
1494 650
1494 310
1493 720
1493 165
1493 7
1492 7769
1492 6917
1492 5978
1492 3272
1492 1941
1492 1899
1492 1558
1492 125
1492 6
1492 4
1491 7743
1491 7656
1491 7047
1491 6852
1491 6369
1491 3986
1491 3911
1491 2990
1491 2376
1491 1430
1491 697
1491 192
1490 3399
1490 2984
1490 2541
1490 452
1490 367
1490 143
1489 6786
1489 288
1489 128
1489 47
1488 9213
1488 6690
1488 916
1488 135
1488 26
1487 7821
1487 6411
1487 5941
1487 2406
1487 1637
1487 971
1487 599
1487 290
1486 9677
1486 7585
1486 7488
1486 6381
1486 4148
1486 3897
1486 2686
1486 1381
1486 92
1486 45
1485 9867
1485 8977
1485 6881
1485 6114
1485 4692
1485 4662
1485 4431
1485 4290
1485 3737
1485 3393
1485 1911
1485 384
1485 288
1485 37
1484 9936
1484 9767
1484 7913
1484 4481
1484 2622
1484 1320
1484 1299
1484 1081
1483 9918
1483 9873
1483 9042
1483 8470
1483 6331
1483 4147
1483 4141
1483 3833
1483 2592
1483 1012
1483 381
1483 156
1482 1281
1482 456
1482 147
1481 9828
1481 9439
1481 8818
1481 7324
1481 7295
1481 6117
1481 4357
1481 4309
1481 3979
1481 3429
1481 2935
1481 1993
1481 475
1481 260
1481 7
1480 931
1480 687
1480 140
1479 462
1479 26
1479 0
1478 9233
1478 6814
1478 6278
1478 4968
1478 4364
1478 2326
1478 537
1478 140
1478 107
1477 9672
1477 6737
1477 2702
1477 265
1477 155
1477 39
1476 8990
1476 5699
1476 4787
1476 3780
1476 3273
1476 2809
1476 2006
1476 1168
1476 240
1476 53
1475 8455
1475 6268
1475 3437
1475 3397
1475 3325
1475 1295
1475 963
1475 462
1474 6504
1474 4671
1474 1404
1474 1087
1474 774
1473 9933
1473 9702
1473 9502
1473 4083
1473 3726
1473 558
1473 351
1473 105
1472 9568
1472 8849
1472 7498
1472 7448
1472 7046
1472 6553
1472 5892
1472 5791
1472 5747
1472 5252
1472 4935
1472 4618
1472 4318
1472 3616
1472 2801
1472 2332
1472 2116
1472 1173
1472 623
1472 271
1471 9435
1471 8265
1471 8113
1471 7161
1471 4842
1471 3128
1471 1963
1471 767
1471 76
1471 45
1470 2141
1470 1026
1470 934
1470 144
1469 5931
1469 1297
1469 812
1469 480
1468 7028
1468 4896
1468 3957
1468 2107
1468 366
1468 80
1468 46
1467 9498
1467 6319
1467 4566
1467 471
1467 35
1467 23
1466 9892
1466 5322
1466 2795
1466 1112
1466 621
1466 76
1465 8891
1465 7995
1465 6601
1465 4574
1465 4434
1465 4277
1465 2163
1465 1451
1465 1338
1465 20
1464 7538
1464 6052
1464 6028
1464 4504
1464 3657
1464 2652
1464 678
1464 405
1464 305
1463 7491
1463 7208
1463 6107
1463 2613
1463 2171
1463 1710
1463 671
1463 80
1463 29
1462 1533
1462 486
1462 120
1462 110
1461 9724
1461 9030
1461 7105
1461 4863
1461 4786
1461 3572
1461 2783
1461 2533
1461 1240
1461 1158
1461 438
1460 7560
1460 5136
1460 4520
1460 3128
1460 1862
1460 1134
1460 774
1460 0
1459 8789
1459 5981
1459 4463
1459 1429
1459 429
1459 342
1458 9162
1458 8717
1458 4797
1458 3054
1458 1947
1458 827
1458 271
1458 11
1457 2080
1457 440
1457 159
1457 83
1456 9922
1456 8263
1456 3539
1456 1260
1456 1119
1456 633
1455 5955
1455 4713
1455 4160
1455 2543
1455 860
1455 67
1455 0
1454 9060
1454 8365
1454 7504
1454 6940
1454 6553
1454 5707
1454 4552
1454 3484
1454 1759
1454 849
1454 648
1454 156
1453 2789
1453 767
1453 346
1453 193
1452 4617
1452 4095
1452 2777
1452 1046
1452 637
1452 223
1451 7755
1451 6531
1451 6211
1451 4344
1451 4240
1451 3896
1451 1627
1451 1465
1451 1168
1451 744
1451 366
1450 8495
1450 6197
1450 5594
1450 5403
1450 4283
1450 4241
1450 1215
1450 483
1450 388
1449 9394
1449 9179
1449 7414
1449 6067
1449 5925
1449 5272
1449 5269
1449 5011
1449 3918
1449 2890
1449 2707
1449 2327
1449 1654
1449 1632
1449 528
1449 478
1449 51
1448 9963
1448 6596
1448 3203
1448 818
1448 198
1448 15
1447 2551
1447 1358
1447 197
1447 39
1446 7318
1446 5892
1446 1182
1446 867
1446 255
1445 7338
1445 3546
1445 748
1445 566
1445 0
1444 9336
1444 5379
1444 4344
1444 4187
1444 1870
1444 1663
1444 339
1444 65
1444 1
1443 7184
1443 5060
1443 2675
1443 2317
1443 696
1443 557
1443 480
1442 8784
1442 2947
1442 1380
1442 505
1442 69
1441 7892
1441 5955
1441 3935
1441 2313
1441 523
1441 386
1441 70
1440 7027
1440 608
1440 9
1440 0
1439 2565
1439 1207
1439 401
1439 1
1438 9510
1438 9399
1438 8293
1438 7540
1438 6527
1438 6171
1438 5330
1438 5328
1438 1983
1438 820
1438 543
1438 84
1437 9553
1437 2532
1437 1169
1437 46
1437 35
1436 8206
1436 5589
1436 5456
1436 4688
1436 4205
1436 2874
1436 2629
1436 1342
1436 839
1436 244
1435 8606
1435 6204
1435 2381
1435 1662
1435 1098
1435 1065
1435 677
1434 2021
1434 527
1434 420
1434 32
1433 6943
1433 5844
1433 5523
1433 3674
1433 3640
1433 3031
1433 1419
1433 265
1433 18
1432 9034
1432 8195
1432 7847
1432 7569
1432 5560
1432 2613
1432 2341
1432 1856
1432 1804
1432 936
1432 884
1432 55
1431 9543
1431 2881
1431 1205
1431 553
1431 407
1430 9671
1430 9491
1430 9128
1430 8860
1430 8359
1430 5057
1430 4107
1430 3531
1430 1773
1430 1761
1430 1491
1430 997
1430 448
1430 9
1429 8536
1429 8228
1429 7862
1429 1704
1429 1459
1429 1048
1429 811
1429 6
1428 9071
1428 5074
1428 1197
1428 305
1428 18
1427 9487
1427 9435
1427 8949
1427 7680
1427 7600
1427 7330
1427 6700
1427 6113
1427 4808
1427 4063
1427 4020
1427 3512
1427 3354
1427 3202
1427 2210
1427 2011
1427 1820
1427 1731
1427 1721
1427 480
1427 294
1427 7
1426 9834
1426 4173
1426 1284
1426 677
1426 77
1425 979
1425 165
1425 61
1424 8912
1424 8530
1424 7744
1424 5654
1424 3710
1424 2736
1424 52
1424 26
1424 16
1423 9311
1423 5739
1423 3345
1423 3176
1423 1056
1423 234
1423 119
1422 6549
1422 2004
1422 989
1422 50
1422 20
1421 7160
1421 4466
1421 746
1421 258
1421 148
1420 6456
1420 1360
1420 1073
1420 63
1419 9931
1419 6349
1419 6283
1419 4618
1419 4511
1419 4114
1419 3580
1419 3570
1419 2390
1419 1606
1419 1433
1419 294
1419 83
1419 36
1418 9888
1418 9569
1418 9420
1418 8415
1418 7721
1418 7331
1418 7017
1418 6514
1418 4868
1418 4317
1418 2781
1418 2757
1418 2710
1418 2648
1418 964
1418 151
1418 88
1417 9436
1417 5935
1417 4623
1417 4189
1417 3967
1417 1562
1417 1532
1417 1304
1417 789
1417 462
1416 8232
1416 6560
1416 6498
1416 5161
1416 911
1416 729
1416 432
1415 1301
1415 1156
1415 89
1414 9167
1414 7557
1414 6553
1414 5558
1414 748
1414 551
1414 7
1413 7714
1413 5578
1413 2116
1413 1271
1413 1222
1413 709
1412 9211
1412 8701
1412 7816
1412 7481
1412 7239
1412 5576
1412 4815
1412 4281
1412 3499
1412 3045
1412 1677
1412 1497
1412 1374
1412 971
1412 136
1411 7286
1411 1516
1411 605
1411 492
1411 187
1410 2695
1410 2443
1410 1957
1410 1848
1410 367
1410 163
1410 150
1409 6057
1409 5705
1409 5594
1409 5042
1409 4199
1409 2981
1409 1643
1409 442
1409 117
1409 14
1408 5711
1408 1678
1408 1406
1408 222
1408 8
1407 9469
1407 7598
1407 3683
1407 3361
1407 1544
1407 619
1407 391
1407 187
1406 6853
1406 4315
1406 3748
1406 2364
1406 1595
1406 1408
1406 1135
1406 636
1406 3
1405 7024
1405 5450
1405 876
1405 510
1405 7
1404 6033
1404 3301
1404 2673
1404 1909
1404 1474
1404 528
1404 293
1404 15
1403 427
1403 331
1403 7
1402 8312
1402 502
1402 225
1402 177
1401 4849
1401 4550
1401 4054
1401 3899
1401 3316
1401 2310
1401 873
1401 165
1401 156
1400 8754
1400 8099
1400 6993
1400 6351
1400 5345
1400 4928
1400 4705
1400 3791
1400 3130
1400 2437
1400 1687
1400 986
1400 332
1400 183
1399 8154
1399 7635
1399 6679
1399 3694
1399 3591
1399 338
1399 174
1399 110
1398 7134
1398 5218
1398 3708
1398 3267
1398 2408
1398 2128
1398 1723
1398 990
1398 120
1398 5
1397 7428
1397 7325
1397 6616
1397 5219
1397 4447
1397 1720
1397 1260
1397 241
1397 10
1396 6901
1396 6428
1396 3480
1396 3391
1396 2443
1396 946
1396 593
1396 271
1395 9265
1395 9184
1395 8722
1395 7946
1395 7696
1395 7529
1395 6968
1395 5705
1395 4981
1395 4408
1395 2732
1395 2197
1395 1903
1395 1698
1395 1672
1395 227
1395 204
1395 59
1394 9494
1394 9224
1394 7127
1394 4650
1394 3735
1394 834
1394 44
1394 26
1393 5760
1393 3960
1393 3185
1393 3110
1393 2885
1393 2841
1393 588
1393 332
1393 73
1392 4643
1392 2437
1392 1601
1392 1002
1392 987
1392 6
1391 293
1391 54
1391 7
1390 9542
1390 8109
1390 7018
1390 6353
1390 5907
1390 5886
1390 5649
1390 4847
1390 2420
1390 1882
1390 631
1390 569
1390 292
1389 9794
1389 3335
1389 2397
1389 520
1389 153
1389 37
1388 4960
1388 2968
1388 1745
1388 324
1388 108
1388 42
1387 9653
1387 5618
1387 3773
1387 3378
1387 1959
1387 886
1387 200
1387 0
1386 3608
1386 2392
1386 1863
1386 1860
1386 544
1386 203
1386 23
1385 8813
1385 2929
1385 1666
1385 1068
1385 696
1385 272
1384 612
1384 544
1384 66
1383 6924
1383 2558
1383 2206
1383 2160
1383 1020
1383 675
1383 1
1382 9277
1382 9209
1382 9017
1382 8235
1382 8217
1382 7883
1382 5910
1382 5325
1382 5106
1382 4960
1382 4607
1382 4026
1382 3761
1382 3641
1382 3472
1382 3406
1382 2025
1382 2014
1382 1984
1382 1754
1382 1633
1382 69
1382 2
1382 1
1381 8759
1381 5614
1381 2391
1381 1611
1381 1486
1381 1157
1381 445
1381 37
1380 9344
1380 5256
1380 4774
1380 3004
1380 1442
1380 591
1380 461
1380 68
1379 9607
1379 4369
1379 2593
1379 1556
1379 396
1379 328
1379 210
1378 1547
1378 1141
1378 902
1378 486
1377 7899
1377 6651
1377 4347
1377 4328
1377 3406
1377 3208
1377 2522
1377 2036
1377 880
1377 147
1377 146
1376 6002
1376 4831
1376 3170
1376 2807
1376 165
1376 87
1376 29
1375 9537
1375 8974
1375 8967
1375 4883
1375 4159
1375 3708
1375 2977
1375 2544
1375 1968
1375 1750
1375 927
1375 209
1375 0
1374 8258
1374 6717
1374 5148
1374 4800
1374 2902
1374 1412
1374 1253
1374 995
1374 12
1373 8491
1373 5776
1373 2069
1373 1619
1373 970
1373 939
1373 216
1372 8945
1372 2766
1372 2479
1372 1232
1372 1027
1372 502
1371 7804
1371 6851
1371 881
1371 46
1371 38
1370 9624
1370 3543
1370 575
1370 567
1370 160
1369 3180
1369 3109
1369 2158
1369 954
1369 872
1369 110
1368 9949
1368 5123
1368 358
1368 302
1368 200
1367 7679
1367 5181
1367 4242
1367 2825
1367 1061
1367 865
1367 603
1366 9761
1366 5474
1366 3232
1366 1903
1366 1865
1366 1184
1366 349
1366 255
1365 7929
1365 4952
1365 395
1365 10
1365 7
1364 6854
1364 5290
1364 4531
1364 360
1364 50
1364 13
1363 6783
1363 1141
1363 338
1363 200
1362 8868
1362 6390
1362 1498
1362 866
1362 386
1362 201
1361 4878
1361 3963
1361 2699
1361 881
1361 263
1361 176
1360 7645
1360 5052
1360 1542
1360 1420
1360 754
1360 113
1360 39
1359 9440
1359 8007
1359 7646
1359 6659
1359 5757
1359 5715
1359 5538
1359 4853
1359 4163
1359 2906
1359 2665
1359 1644
1359 1158
1359 1109
1359 288
1358 9338
1358 6478
1358 3437
1358 3222
1358 2922
1358 2624
1358 1447
1358 1019
1358 102
1358 14
1357 9622
1357 9509
1357 4274
1357 2119
1357 2111
1357 1286
1357 1142
1357 316
1356 7000
1356 4585
1356 4314
1356 648
1356 583
1356 343
1355 9310
1355 5736
1355 1208
1355 182
1355 83
1354 7131
1354 5633
1354 434
1354 395
1354 309
1353 170
1353 140
1353 0
1352 8494
1352 7566
1352 6884
1352 5199
1352 4710
1352 3972
1352 1980
1352 1194
1352 141
1352 138
1351 8906
1351 7536
1351 4828
1351 1510
1351 600
1351 36
1351 14
1350 5440
1350 790
1350 534
1350 4
1349 8953
1349 8340
1349 6723
1349 6601
1349 5135
1349 3953
1349 3663
1349 2643
1349 2449
1349 1846
1349 1518
1349 896
1349 221
1349 165
1348 9486
1348 993
1348 240
1348 5
1347 8875
1347 8395
1347 6300
1347 4982
1347 4890
1347 4708
1347 3865
1347 3317
1347 2263
1347 2208
1347 1587
1347 100
1347 37
1347 0
1346 3607
1346 3352
1346 1202
1346 473
1346 301
1345 5497
1345 3609
1345 3525
1345 3191
1345 1761
1345 486
1345 260
1345 11
1344 8246
1344 733
1344 156
1344 77
1343 4470
1343 548
1343 26
1343 9
1342 9639
1342 5845
1342 1874
1342 1436
1342 141
1342 32
1342 27
1341 9432
1341 8441
1341 7875
1341 7202
1341 7128
1341 6925
1341 6895
1341 6849
1341 6276
1341 5627
1341 5514
1341 4531
1341 4161
1341 3548
1341 3379
1341 3258
1341 3003
1341 2959
1341 1694
1341 1590
1341 812
1341 723
1341 173
1340 5363
1340 4767
1340 3246
1340 2616
1340 331
1340 266
1340 31
1339 7924
1339 7740
1339 6505
1339 4884
1339 4848
1339 1635
1339 1055
1339 611
1339 499
1338 9097
1338 8606
1338 6362
1338 5505
1338 4875
1338 4812
1338 3113
1338 2948
1338 2491
1338 2486
1338 1465
1338 1063
1338 470
1338 367
1337 8010
1337 2757
1337 2182
1337 127
1337 3
1337 0
1336 7885
1336 300
1336 170
1336 97
1335 7135
1335 6093
1335 5599
1335 4661
1335 3577
1335 3240
1335 3152
1335 2631
1335 2318
1335 1835
1335 565
1335 158
1335 23
1334 8173
1334 1229
1334 953
1334 464
1333 6644
1333 6234
1333 5209
1333 3028
1333 2985
1333 1229
1333 904
1333 604
1332 6482
1332 3981
1332 3571
1332 2826
1332 2526
1332 2525
1332 1867
1332 866
1332 497
1332 158
1331 8763
1331 8342
1331 5792
1331 4661
1331 4649
1331 4450
1331 3876
1331 3666
1331 3122
1331 2105
1331 2072
1331 1545
1331 364
1331 326
1331 131
1330 8250
1330 3388
1330 2470
1330 1955
1330 871
1330 246
1330 140
1329 9196
1329 8157
1329 5275
1329 3604
1329 3494
1329 3137
1329 2625
1329 666
1329 225
1329 14
1328 9950
1328 9488
1328 9081
1328 7733
1328 7220
1328 5194
1328 2494
1328 2486
1328 2438
1328 2426
1328 363
1328 144
1328 7
1327 7570
1327 6841
1327 1733
1327 1022
1327 946
1327 2
1326 5489
1326 5105
1326 4795
1326 3810
1326 3542
1326 3483
1326 2571
1326 1966
1326 174
1326 110
1326 5
1325 9634
1325 5845
1325 4348
1325 2929
1325 2523
1325 748
1325 118
1325 78
1324 8741
1324 6356
1324 4995
1324 713
1324 389
1324 147
1323 401
1323 335
1323 30
1322 8708
1322 945
1322 463
1322 187
1321 8390
1321 8159
1321 7141
1321 1197
1321 91
1321 66
1320 9392
1320 9156
1320 9090
1320 7422
1320 6045
1320 5279
1320 4882
1320 2707
1320 2536
1320 1484
1320 894
1320 872
1320 369
1319 5790
1319 3811
1319 2128
1319 1255
1319 482
1319 260
1318 7929
1318 7152
1318 7085
1318 4279
1318 3111
1318 1924
1318 106
1318 7
1318 1
1317 1528
1317 316
1317 101
1317 83
1316 9258
1316 6960
1316 4841
1316 1803
1316 870
1316 828
1316 338
1315 8060
1315 7438
1315 1927
1315 1732
1315 742
1315 502
1315 153
1314 5249
1314 4117
1314 3839
1314 3746
1314 2715
1314 2641
1314 2627
1314 1299
1314 1079
1314 83
1313 7118
1313 6130
1313 4529
1313 3619
1313 3453
1313 3200
1313 2522
1313 1787
1313 1521
1313 1283
1313 783
1313 104
1312 6536
1312 5486
1312 3522
1312 961
1312 60
1312 49
1311 9351
1311 9332
1311 6226
1311 4786
1311 4425
1311 3801
1311 3416
1311 2768
1311 2425
1311 2266
1311 1790
1311 1033
1311 736
1311 595
1310 4179
1310 381
1310 184
1310 4
1309 9103
1309 9016
1309 1081
1309 837
1309 723
1308 2944
1308 1148
1308 293
1308 214
1307 9026
1307 8426
1307 8167
1307 7692
1307 7425
1307 7296
1307 7052
1307 7048
1307 6815
1307 4061
1307 3757
1307 2932
1307 1959
1307 1127
1307 807
1307 474
1306 9951
1306 9541
1306 8680
1306 8557
1306 8187
1306 7013
1306 6920
1306 6468
1306 6465
1306 6153
1306 5181
1306 4581
1306 4419
1306 3411
1306 2475
1306 2347
1306 1621
1306 1119
1306 948
1306 508
1305 7419
1305 5251
1305 4273
1305 406
1305 88
1305 19
1304 8729
1304 7499
1304 3355
1304 2119
1304 1417
1304 1011
1304 488
1304 7
1303 8251
1303 7383
1303 6920
1303 4683
1303 3828
1303 104
1303 31
1303 25
1302 265
1302 146
1302 55
1301 8871
1301 7332
1301 6724
1301 5173
1301 4893
1301 4649
1301 4375
1301 4247
1301 4177
1301 3431
1301 3152
1301 2837
1301 2583
1301 1415
1301 1298
1301 11
1301 7
1300 9809
1300 7897
1300 7216
1300 6268
1300 5600
1300 5355
1300 4109
1300 1045
1300 454
1300 83
1299 5907
1299 4994
1299 3524
1299 2598
1299 2107
1299 1484
1299 1314
1299 1216
1299 236
1299 14
1298 8297
1298 8237
1298 7689
1298 7358
1298 4525
1298 4457
1298 3254
1298 1645
1298 1301
1298 607
1298 471
1298 204
1297 9334
1297 4692
1297 1469
1297 129
1297 61
1297 27
1296 9001
1296 7428
1296 5730
1296 3693
1296 2019
1296 929
1296 836
1296 7
1295 3447
1295 2089
1295 1475
1295 1194
1295 288
1295 63
1294 7294
1294 6985
1294 5029
1294 4365
1294 4092
1294 3879
1294 3715
1294 3225
1294 3068
1294 2517
1294 1947
1294 1693
1294 154
1294 74
1294 7
1293 6305
1293 461
1293 7
1293 0
1292 760
1292 457
1292 16
1291 2349
1291 2323
1291 91
1291 5
1291 0
1290 9563
1290 9545
1290 6146
1290 3991
1290 3986
1290 3851
1290 3830
1290 2642
1290 2541
1290 1645
1290 850
1290 749
1290 65
1289 6309
1289 3993
1289 3596
1289 1546
1289 240
1289 120
1289 100
1288 1169
1288 282
1288 5
1287 8777
1287 8605
1287 7440
1287 6698
1287 5488
1287 5479
1287 4101
1287 3797
1287 3581
1287 3141
1287 1906
1287 1735
1287 868
1287 223
1287 6
1286 7492
1286 7021
1286 4394
1286 1357
1286 1075
1286 251
1286 86
1285 7335
1285 5797
1285 4133
1285 3636
1285 540
1285 113
1285 33
1284 8073
1284 7233
1284 6645
1284 2600
1284 1426
1284 960
1284 90
1284 46
1283 6459
1283 6266
1283 5748
1283 5741
1283 4902
1283 4156
1283 3981
1283 3063
1283 2660
1283 1313
1283 389
1283 71
1283 11
1282 7360
1282 3159
1282 1652
1282 1069
1282 293
1282 198
1281 9793
1281 8040
1281 4555
1281 3035
1281 1482
1281 936
1281 18
1281 6
1280 2889
1280 862
1280 531
1280 32
1279 5024
1279 3675
1279 3230
1279 1143
1279 502
1279 50
1278 1192
1278 1042
1278 47
1277 9815
1277 9114
1277 7311
1277 6084
1277 707
1277 337
1277 94
1276 9893
1276 332
1276 143
1276 37
1275 9672
1275 9546
1275 8902
1275 6927
1275 5972
1275 5617
1275 4852
1275 4424
1275 3892
1275 3670
1275 3620
1275 2357
1275 2308
1275 1995
1275 1727
1275 1494
1275 395
1275 343
1275 45
1274 9340
1274 866
1274 828
1274 45
1273 9774
1273 7560
1273 7254
1273 4429
1273 2776
1273 333
1273 140
1273 23
1272 8683
1272 474
1272 210
1272 61
1271 9214
1271 9027
1271 6218
1271 5519
1271 5117
1271 2987
1271 2163
1271 1911
1271 1413
1271 26
1271 14
1271 1
1270 8619
1270 5338
1270 4687
1270 776
1270 265
1270 258
1269 3012
1269 200
1269 46
1269 4
1268 7758
1268 6933
1268 5278
1268 4507
1268 3913
1268 934
1268 915
1268 91
1267 6033
1267 600
1267 110
1267 102
1266 8064
1266 7275
1266 6396
1266 5514
1266 2069
1266 1938
1266 1670
1266 1163
1266 71
1266 31
1265 9721
1265 8745
1265 6898
1265 6603
1265 3255
1265 3126
1265 1954
1265 707
1265 41
1265 39
1264 9019
1264 7927
1264 7455
1264 6242
1264 4642
1264 4408
1264 3611
1264 3191
1264 3150
1264 1748
1264 1579
1264 665
1264 193
1264 43
1263 6025
1263 5738
1263 4335
1263 2949
1263 1950
1263 1708
1263 988
1263 683
1263 309
1262 7320
1262 4869
1262 4601
1262 4355
1262 3678
1262 3070
1262 696
1262 457
1262 108
1261 950
1261 838
1261 7
1260 9225
1260 7921
1260 5429
1260 4565
1260 2431
1260 1456
1260 1397
1260 1012
1260 563
1260 1
1259 2451
1259 512
1259 284
1259 131
1258 6173
1258 5527
1258 2364
1258 651
1258 439
1258 45
1257 8655
1257 6903
1257 6444
1257 6333
1257 6014
1257 5029
1257 4319
1257 3713
1257 3133
1257 2910
1257 2806
1257 2670
1257 2307
1257 2195
1257 1803
1257 1195
1257 655
1257 609
1256 939
1256 937
1256 76
1255 7794
1255 7266
1255 6208
1255 3904
1255 1718
1255 1553
1255 1319
1255 584
1255 335
1255 46
1254 5300
1254 1124
1254 66
1254 63
1253 4149
1253 2648
1253 1961
1253 1374
1253 116
1253 48
1253 43
1252 9956
1252 8296
1252 6628
1252 3304
1252 3051
1252 2879
1252 2292
1252 1878
1252 560
1252 544
1252 32
1251 9266
1251 9075
1251 452
1251 191
1251 32
1250 9072
1250 7174
1250 4753
1250 4245
1250 3736
1250 3735
1250 3631
1250 3569
1250 3127
1250 3067
1250 2615
1250 1786
1250 1628
1250 1547
1250 168
1250 135
1250 5
1249 6419
1249 5419
1249 1076
1249 1019
1249 477
1248 9802
1248 3048
1248 3033
1248 869
1248 107
1248 0
1247 154
1247 3
1247 2
1246 4842
1246 3969
1246 3075
1246 1905
1246 1709
1246 59
1246 15
1246 14
1245 6577
1245 5731
1245 5285
1245 2588
1245 947
1245 881
1245 667
1244 9944
1244 6594
1244 4686
1244 4181
1244 4167
1244 3828
1244 2100
1244 1027
1244 332
1244 275
1243 5456
1243 5393
1243 3149
1243 449
1243 113
1243 3
1242 8779
1242 7786
1242 3150
1242 2547
1242 2400
1242 583
1242 122
1242 6
1241 6672
1241 5789
1241 3746
1241 3507
1241 3000
1241 2765
1241 240
1241 43
1241 13
1240 2044
1240 1461
1240 713
1240 58
1240 43
1239 3592
1239 3340
1239 880
1239 239
1239 97
1238 9389
1238 9018
1238 8368
1238 6760
1238 4603
1238 2571
1238 1869
1238 488
1238 6
1238 0
1237 6586
1237 4884
1237 3269
1237 3257
1237 3075
1237 2614
1237 1740
1237 173
1237 126
1237 109
1236 9860
1236 5741
1236 3977
1236 3659
1236 2720
1236 2389
1236 1972
1236 1032
1236 920
1236 102
1235 9810
1235 7527
1235 4933
1235 3952
1235 343
1235 127
1235 63
1234 6237
1234 5986
1234 3606
1234 2555
1234 1841
1234 1796
1234 1095
1234 727
1234 46
1233 7548
1233 2305
1233 626
1233 161
1233 83
1232 5415
1232 1372
1232 522
1232 97
1232 5
1231 6762
1231 6429
1231 3160
1231 265
1231 212
1231 12
1230 5811
1230 675
1230 644
1230 27
1229 9851
1229 8101
1229 8094
1229 7185
1229 5857
1229 4003
1229 2746
1229 2620
1229 2339
1229 2044
1229 2037
1229 1766
1229 1334
1229 1333
1229 1141
1229 310
1229 225
1228 9943
1228 9590
1228 9271
1228 9110
1228 8145
1228 7337
1228 6384
1228 2336
1228 1512
1228 806
1228 567
1228 177
1227 8078
1227 442
1227 332
1227 29
1226 8293
1226 6993
1226 6326
1226 3541
1226 2979
1226 2667
1226 2419
1226 2127
1226 2048
1226 1141
1226 73
1226 38
1225 4384
1225 246
1225 242
1225 240
1224 721
1224 26
1224 4
1223 8806
1223 5579
1223 4564
1223 3872
1223 3738
1223 3138
1223 2553
1223 1785
1223 894
1223 325
1223 178
1222 4875
1222 4377
1222 1413
1222 572
1222 93
1222 12
1221 7949
1221 6069
1221 5780
1221 5656
1221 4069
1221 3871
1221 1046
1221 456
1221 7
1220 4967
1220 3730
1220 2940
1220 809
1220 464
1220 60
1219 9759
1219 9314
1219 8277
1219 7393
1219 7005
1219 5356
1219 4912
1219 3526
1219 1833
1219 791
1219 555
1219 0
1218 4626
1218 578
1218 294
1218 76
1217 8692
1217 7151
1217 4760
1217 4270
1217 1190
1217 723
1217 217
1216 8417
1216 5878
1216 5803
1216 5766
1216 3390
1216 1682
1216 1299
1216 673
1216 591
1216 272
1215 3474
1215 1450
1215 938
1215 200
1215 6
1214 8465
1214 5176
1214 3332
1214 1798
1214 474
1214 207
1214 3
1213 7442
1213 4272
1213 1637
1213 791
1213 204
1213 3
1212 7370
1212 3807
1212 3647
1212 2432
1212 1024
1212 802
1212 530
1211 9041
1211 4207
1211 2514
1211 1755
1211 839
1211 636
1211 577
1210 4928
1210 1567
1210 1136
1210 1036
1210 592
1209 8861
1209 8802
1209 7656
1209 2887
1209 2046
1209 2001
1209 1880
1209 1094
1209 176
1209 34
1208 7053
1208 1355
1208 151
1208 95
1208 0
1207 5475
1207 3708
1207 1957
1207 1439
1207 168
1207 146
1207 2
1206 9692
1206 7323
1206 5903
1206 3329
1206 619
1206 181
1206 38
1205 6065
1205 5952
1205 3975
1205 1809
1205 1786
1205 1431
1205 1069
1205 494
1205 90
1204 9070
1204 8183
1204 4763
1204 3025
1204 2009
1204 419
1204 222
1204 51
1203 4536
1203 4485
1203 3770
1203 3038
1203 2019
1203 514
1203 221
1203 9
1202 9296
1202 8174
1202 7484
1202 4528
1202 2731
1202 2387
1202 1793
1202 1346
1202 963
1202 130
1202 6
1201 506
1201 501
1201 225
1200 3959
1200 3809
1200 1594
1200 841
1200 385
1200 148
1199 9064
1199 7259
1199 6994
1199 6751
1199 6156
1199 5873
1199 3620
1199 3314
1199 2236
1199 1069
1199 314
1199 174
1198 7067
1198 6981
1198 5972
1198 5894
1198 5028
1198 4772
1198 4518
1198 3971
1198 3300
1198 1575
1198 611
1198 588
1198 391
1197 9187
1197 8616
1197 8086
1197 7980
1197 6220
1197 5963
1197 5569
1197 2155
1197 2120
1197 1851
1197 1428
1197 1321
1197 979
1197 796
1197 122
1196 6945
1196 2604
1196 790
1196 70
1196 0
1195 8271
1195 7688
1195 5804
1195 5764
1195 5543
1195 4980
1195 3556
1195 3234
1195 2093
1195 2032
1195 2020
1195 1699
1195 1257
1195 902
1195 708
1195 413
1194 8943
1194 7345
1194 7249
1194 6199
1194 3790
1194 1352
1194 1295
1194 597
1194 267
1194 70
1193 9564
1193 7530
1193 1894
1193 518
1193 127
1193 36
1192 7715
1192 4999
1192 3078
1192 2545
1192 2478
1192 2206
1192 1278
1192 377
1192 184
1192 115
1191 7471
1191 4211
1191 3966
1191 186
1191 142
1191 57
1190 8537
1190 4640
1190 1217
1190 890
1190 554
1190 364
1189 9221
1189 7745
1189 6912
1189 5613
1189 4416
1189 3449
1189 3211
1189 2524
1189 583
1189 77
1189 33
1188 8409
1188 6743
1188 5398
1188 929
1188 637
1188 212
1187 7865
1187 1019
1187 69
1187 7
1186 7357
1186 5154
1186 2275
1186 129
1186 111
1186 7
1185 7555
1185 6375
1185 4631
1185 4008
1185 2801
1185 2549
1185 2405
1185 2296
1185 455
1185 216
1185 7
1184 4041
1184 3952
1184 3893
1184 3559
1184 2578
1184 1690
1184 1366
1184 213
1184 103
1184 3
1183 5005
1183 2427
1183 2259
1183 1702
1183 375
1183 117
1183 93
1182 9933
1182 9383
1182 7618
1182 7529
1182 7152
1182 4082
1182 3836
1182 2683
1182 2303
1182 1691
1182 1446
1182 655
1182 419
1182 190
1181 9987
1181 9941
1181 8832
1181 7759
1181 7042
1181 2490
1181 844
1181 178
1181 90
1180 9701
1180 9477
1180 8151
1180 7328
1180 5679
1180 4965
1180 3880
1180 2872
1180 395
1180 271
1180 5
1179 5441
1179 3688
1179 3344
1179 956
1179 9
1179 3
1178 8356
1178 7061
1178 946
1178 853
1178 101
1177 7879
1177 5061
1177 3468
1177 3076
1177 743
1177 530
1177 100
1176 9758
1176 6853
1176 5518
1176 5185
1176 3687
1176 1004
1176 260
1176 194
1175 9926
1175 4842
1175 4154
1175 2083
1175 332
1175 331
1175 313
1174 648
1174 173
1174 5
1173 3484
1173 1472
1173 1101
1173 461
1173 4
1172 5115
1172 4473
1172 3241
1172 3119
1172 1026
1172 88
1172 7
1171 9113
1171 8117
1171 8050
1171 6633
1171 3391
1171 3057
1171 1764
1171 188
1171 176
1171 46
1170 8351
1170 7611
1170 4085
1170 3284
1170 1723
1170 53
1170 30
1170 4
1169 6416
1169 5863
1169 4456
1169 3093
1169 2542
1169 2346
1169 1437
1169 1288
1169 846
1169 829
1169 596
1168 7901
1168 1476
1168 1451
1168 1069
1168 254
1168 3
1167 5101
1167 4659
1167 4227
1167 1051
1167 355
1167 0
1166 619
1166 72
1166 27
1165 9756
1165 6833
1165 6198
1165 5302
1165 3706
1165 1649
1165 584
1165 165
1165 88
1164 9873
1164 9577
1164 9173
1164 8874
1164 7864
1164 5625
1164 4876
1164 3552
1164 3049
1164 3017
1164 2571
1164 2462
1164 2169
1164 2003
1164 1717
1164 550
1164 391
1164 294
1163 8921
1163 8594
1163 4659
1163 1266
1163 740
1163 454
1163 426
1162 8968
1162 8628
1162 7471
1162 6367
1162 5895
1162 3538
1162 2924
1162 2857
1162 2685
1162 2099
1162 667
1162 148
1162 58
1161 5711
1161 944
1161 261
1161 39
1160 9362
1160 9273
1160 7995
1160 6022
1160 5865
1160 5794
1160 4545
1160 4472
1160 4036
1160 3961
1160 2856
1160 1102
1160 1057
1160 958
1159 8913
1159 4483
1159 3403
1159 791
1159 735
1159 50
1158 6496
1158 3390
1158 1461
1158 1359
1158 1150
1158 346
1158 318
1157 3721
1157 3485
1157 1381
1157 300
1157 7
1157 2
1156 9013
1156 6597
1156 2590
1156 1903
1156 1763
1156 1415
1156 93
1156 45
1156 6
1155 5448
1155 3868
1155 3169
1155 2394
1155 894
1155 434
1155 20
1154 6905
1154 1523
1154 772
1154 591
1154 462
1153 9447
1153 6145
1153 2936
1153 481
1153 192
1153 70
1152 2087
1152 448
1152 325
1152 192
1151 8967
1151 5878
1151 2487
1151 2090
1151 1962
1151 1875
1151 757
1151 405
1151 100
1150 6215
1150 5282
1150 4459
1150 4230
1150 2185
1150 1974
1150 1945
1150 1813
1150 1158
1150 813
1150 193
1150 169
1149 9454
1149 7374
1149 4542
1149 2066
1149 2042
1149 1594
1149 672
1149 443
1149 430
1148 9750
1148 9416
1148 7944
1148 7668
1148 7112
1148 5655
1148 5483
1148 3448
1148 2243
1148 1712
1148 1667
1148 1308
1148 649
1148 274
1148 68
1147 9220
1147 7232
1147 4952
1147 4845
1147 4229
1147 3793
1147 3564
1147 1029
1147 556
1147 88
1146 9344
1146 7657
1146 5640
1146 4966
1146 3907
1146 1744
1146 1559
1146 505
1146 255
1146 16
1145 9747
1145 8580
1145 6504
1145 4951
1145 912
1145 816
1145 26
1144 7148
1144 6212
1144 4853
1144 2390
1144 619
1144 560
1144 414
1143 7831
1143 6635
1143 6263
1143 2733
1143 1279
1143 312
1143 225
1143 160
1142 8957
1142 7047
1142 5409
1142 2387
1142 1357
1142 564
1142 518
1142 284
1141 9728
1141 7159
1141 6150
1141 5694
1141 3497
1141 2711
1141 2529
1141 2487
1141 2241
1141 1378
1141 1363
1141 1229
1141 1226
1141 534
1141 427
1141 188
1140 7554
1140 7418
1140 5881
1140 4079
1140 3921
1140 1785
1140 740
1140 257
1140 10
1139 9694
1139 1015
1139 932
1139 840
1138 9916
1138 7887
1138 7507
1138 6414
1138 4729
1138 4214
1138 3833
1138 197
1138 178
1138 117
1137 6761
1137 6563
1137 2321
1137 220
1137 78
1137 45
1136 9490
1136 7795
1136 5759
1136 4592
1136 2938
1136 2860
1136 2815
1136 1210
1136 230
1136 29
1136 4
1135 9537
1135 4665
1135 3215
1135 1934
1135 1823
1135 1801
1135 1665
1135 1406
1135 488
1135 221
1135 20
1134 9006
1134 3960
1134 3295
1134 1676
1134 1460
1134 745
1134 353
1134 4
1133 8946
1133 7092
1133 3224
1133 344
1133 122
1133 0
1132 9493
1132 6815
1132 3492
1132 2569
1132 2517
1132 1100
1132 600
1132 228
1131 9764
1131 9706
1131 8670
1131 6371
1131 5590
1131 5528
1131 5348
1131 4195
1131 3750
1131 2954
1131 2540
1131 2353
1131 2331
1131 1843
1131 1096
1131 522
1131 459
1130 6479
1130 3548
1130 3190
1130 1114
1130 652
1130 112
1129 8715
1129 6802
1129 5012
1129 4723
1129 909
1129 589
1129 580
1128 7461
1128 6383
1128 4733
1128 4220
1128 2752
1128 1811
1128 860
1128 708
1128 105
1127 9231
1127 7554
1127 5391
1127 4996
1127 3225
1127 3125
1127 2741
1127 1881
1127 1880
1127 1640
1127 1597
1127 1307
1127 715
1127 616
1127 23
1126 9502
1126 8902
1126 7828
1126 5746
1126 3838
1126 2681
1126 2655
1126 1658
1126 1641
1126 399
1126 100
1126 11
1125 9119
1125 8331
1125 6168
1125 6068
1125 5253
1125 5094
1125 4690
1125 4559
1125 4346
1125 3174
1125 354
1125 181
1125 6
1124 8566
1124 8480
1124 6633
1124 6499
1124 3966
1124 2899
1124 1953
1124 1929
1124 1872
1124 1767
1124 1254
1124 603
1124 439
1124 153
1123 7416
1123 5984
1123 1905
1123 336
1123 100
1123 78
1122 9831
1122 8666
1122 7109
1122 5565
1122 4559
1122 2696
1122 1760
1122 1009
1122 314
1122 271
1121 8513
1121 4306
1121 818
1121 345
1121 29
1120 7808
1120 6507
1120 3713
1120 2800
1120 511
1120 429
1120 143
1119 6861
1119 5187
1119 5101
1119 4055
1119 3779
1119 3585
1119 2604
1119 1456
1119 1306
1119 645
1119 217
1119 18
1118 7860
1118 3489
1118 3037
1118 332
1118 180
1118 110
1117 5476
1117 5050
1117 2154
1117 332
1117 222
1117 176
1116 5314
1116 941
1116 171
1116 34
1115 4886
1115 4805
1115 2158
1115 625
1115 14
1115 4
1114 7812
1114 7308
1114 5735
1114 4803
1114 4023
1114 3864
1114 2752
1114 1617
1114 1130
1114 250
1114 217
1114 203
1113 7026
1113 5936
1113 5858
1113 1998
1113 1939
1113 1529
1113 371
1113 119
1113 30
1112 7433
1112 6800
1112 6539
1112 3803
1112 2999
1112 2909
1112 1466
1112 387
1112 381
1112 210
1111 8858
1111 6978
1111 3902
1111 411
1111 14
1111 13
1110 8706
1110 3134
1110 2830
1110 2645
1110 539
1110 76
1110 43
1109 8455
1109 6309
1109 1541
1109 1359
1109 895
1109 542
1109 301
1108 5988
1108 4678
1108 4023
1108 706
1108 611
1108 237
1107 9239
1107 8690
1107 5720
1107 5609
1107 4922
1107 4652
1107 4405
1107 4366
1107 2883
1107 2112
1107 1868
1107 1777
1107 280
1107 28
1107 5
1106 4156
1106 1893
1106 248
1106 52
1106 46
1105 6663
1105 5955
1105 5447
1105 5223
1105 3003
1105 2232
1105 2124
1105 637
1105 193
1105 16
1104 990
1104 255
1104 150
1103 9811
1103 8447
1103 5674
1103 5477
1103 4613
1103 933
1103 78
1103 5
1102 9894
1102 9145
1102 8453
1102 7945
1102 6224
1102 4945
1102 4250
1102 4120
1102 3347
1102 2712
1102 1515
1102 1160
1102 49
1102 11
1102 7
1101 9681
1101 9634
1101 9490
1101 7407
1101 3664
1101 2071
1101 1173
1101 690
1101 23
1101 3
1100 5191
1100 3698
1100 3319
1100 1132
1100 720
1100 176
1100 169
1099 7485
1099 6488
1099 4583
1099 3980
1099 2975
1099 2852
1099 1808
1099 1716
1099 223
1099 117
1099 113
1098 7434
1098 6313
1098 6170
1098 5206
1098 2869
1098 2668
1098 1580
1098 1435
1098 948
1098 124
1098 119
1097 1000
1097 632
1097 169
1096 7619
1096 6614
1096 6593
1096 3774
1096 2649
1096 2630
1096 2418
1096 1992
1096 1131
1096 871
1096 32
1096 9
1095 9890
1095 9240
1095 3975
1095 3369
1095 2391
1095 1815
1095 1671
1095 1234
1095 860
1095 532
1095 77
1094 2779
1094 1506
1094 1209
1094 1059
1094 929
1094 633
1093 7559
1093 6178
1093 5196
1093 3351
1093 998
1093 527
1093 396
1092 3907
1092 2725
1092 654
1092 264
1092 142
1091 9086
1091 2084
1091 474
1091 241
1091 57
1090 9747
1090 8634
1090 8294
1090 7284
1090 5774
1090 4971
1090 4621
1090 3058
1090 2804
1090 2283
1090 1857
1090 420
1090 187
1090 30
1089 6730
1089 5961
1089 4956
1089 4710
1089 4541
1089 4167
1089 2589
1089 2218
1089 1595
1089 713
1089 196
1089 188
1088 9635
1088 704
1088 38
1088 0
1087 9576
1087 8903
1087 6397
1087 5754
1087 5492
1087 4997
1087 4836
1087 2180
1087 1474
1087 468
1087 37
1087 7
1086 9200
1086 8634
1086 4640
1086 2668
1086 808
1086 10
1086 2
1085 7467
1085 7203
1085 503
1085 55
1085 6
1084 9179
1084 7089
1084 6974
1084 4181
1084 894
1084 834
1084 442
1083 6249
1083 5659
1083 5233
1083 5047
1083 4614
1083 3939
1083 3933
1083 3855
1083 3248
1083 2863
1083 2662
1083 1810
1083 904
1083 641
1083 384
1082 6769
1082 5380
1082 3805
1082 3566
1082 2961
1082 2934
1082 2007
1082 1667
1082 1016
1082 809
1082 535
1081 7879
1081 7719
1081 5876
1081 5743
1081 5539
1081 5147
1081 5086
1081 4332
1081 4228
1081 4129
1081 4002
1081 2331
1081 1816
1081 1765
1081 1484
1081 1309
1081 595
1081 306
1081 266
1080 7959
1080 4021
1080 2233
1080 705
1080 436
1080 27
1079 8760
1079 7936
1079 7747
1079 6895
1079 6298
1079 5034
1079 4056
1079 3408
1079 3365
1079 3325
1079 2843
1079 2078
1079 1632
1079 1314
1079 717
1079 379
1079 4
1078 8123
1078 4082
1078 3900
1078 2010
1078 424
1078 184
1078 47
1077 4092
1077 445
1077 256
1077 11
1076 8477
1076 5413
1076 5409
1076 1249
1076 317
1076 7
1076 1
1075 9662
1075 8863
1075 8646
1075 3799
1075 3795
1075 2183
1075 2169
1075 1507
1075 1286
1075 1008
1075 667
1075 357
1074 838
1074 769
1074 14
1073 9917
1073 4221
1073 2101
1073 1420
1073 1015
1073 901
1073 806
1072 8408
1072 7720
1072 4769
1072 1962
1072 692
1072 499
1072 26
1071 6832
1071 4914
1071 3584
1071 732
1071 458
1071 339
1070 4611
1070 3290
1070 325
1070 280
1070 37
1069 9952
1069 8713
1069 6614
1069 3935
1069 3063
1069 2475
1069 1856
1069 1684
1069 1282
1069 1205
1069 1199
1069 1168
1069 332
1069 110
1069 35
1068 9886
1068 9490
1068 8044
1068 7118
1068 5692
1068 5275
1068 5060
1068 3445
1068 1385
1068 394
1068 367
1068 49
1067 8275
1067 5377
1067 797
1067 702
1067 356
1066 9926
1066 8131
1066 3454
1066 722
1066 560
1066 461
1065 7129
1065 6040
1065 6018
1065 1435
1065 852
1065 38
1065 9
1064 9686
1064 8585
1064 7476
1064 5814
1064 4220
1064 3574
1064 2432
1064 316
1064 110
1064 37
1063 8938
1063 8409
1063 4608
1063 1997
1063 1338
1063 753
1063 597
1063 62
1062 8071
1062 6463
1062 5967
1062 4428
1062 3744
1062 2691
1062 1651
1062 871
1062 328
1062 4
1061 7782
1061 7282
1061 3275
1061 2612
1061 2359
1061 1663
1061 1367
1061 613
1061 150
1061 90
1060 5641
1060 1021
1060 246
1060 47
1059 9283
1059 6997
1059 6962
1059 6144
1059 4830
1059 4644
1059 4487
1059 4021
1059 3789
1059 3256
1059 1094
1059 806
1059 2
1059 1
1058 9953
1058 6818
1058 2041
1058 464
1058 391
1058 188
1057 9377
1057 7242
1057 6501
1057 6409
1057 5541
1057 5285
1057 4642
1057 4410
1057 4158
1057 3501
1057 3363
1057 2583
1057 1160
1057 1056
1057 54
1057 26
1056 9984
1056 9293
1056 6845
1056 6428
1056 6326
1056 4799
1056 4672
1056 4223
1056 3608
1056 3600
1056 2446
1056 1996
1056 1679
1056 1423
1056 1057
1056 98
1056 47
1056 4
1055 8716
1055 5505
1055 2376
1055 2103
1055 1629
1055 1339
1055 430
1055 282
1055 169
1054 9155
1054 2292
1054 729
1054 492
1054 342
1053 5819
1053 5061
1053 4591
1053 4157
1053 3095
1053 2568
1053 2537
1053 491
1053 204
1053 67
1052 5671
1052 3479
1052 1997
1052 142
1052 138
1052 45
1051 7448
1051 4953
1051 1167
1051 827
1051 353
1051 232
1050 9092
1050 9076
1050 7789
1050 7416
1050 5883
1050 4923
1050 4881
1050 4317
1050 2957
1050 2632
1050 1600
1050 864
1050 682
1050 42
1049 9656
1049 9007
1049 8836
1049 7480
1049 7165
1049 5567
1049 5342
1049 5217
1049 1584
1049 851
1049 522
1049 92
1048 9330
1048 7133
1048 3344
1048 2133
1048 1987
1048 1429
1048 814
1048 131
1048 115
1047 9355
1047 8688
1047 3936
1047 1708
1047 131
1047 90
1047 55
1046 9854
1046 9809
1046 9068
1046 8493
1046 8271
1046 8098
1046 7817
1046 7238
1046 6297
1046 5042
1046 4967
1046 4960
1046 3949
1046 3824
1046 2860
1046 2649
1046 2375
1046 1682
1046 1571
1046 1452
1046 1221
1046 565
1046 258
1046 7
1045 5453
1045 4251
1045 3529
1045 3302
1045 2897
1045 2442
1045 2385
1045 1300
1045 753
1045 242
1045 94
1044 951
1044 591
1044 481
1043 9851
1043 9388
1043 9015
1043 8155
1043 7674
1043 7573
1043 7135
1043 7107
1043 5582
1043 4292
1043 3594
1043 2691
1043 2063
1043 1946
1043 1782
1043 823
1043 594
1043 306
1042 4248
1042 4054
1042 1278
1042 228
1042 158
1042 35
1041 9977
1041 6132
1041 3958
1041 3220
1041 2302
1041 953
1041 490
1041 0
1040 9011
1040 426
1040 274
1040 24
1039 2211
1039 243
1039 230
1039 77
1038 9432
1038 5124
1038 993
1038 342
1038 33
1037 5266
1037 3797
1037 3546
1037 2085
1037 387
1037 197
1037 12
1036 8916
1036 6753
1036 4664
1036 4166
1036 3507
1036 3086
1036 2333
1036 2278
1036 1210
1036 183
1036 160
1036 80
1035 5911
1035 4849
1035 4212
1035 3786
1035 2607
1035 69
1035 29
1035 21
1034 7990
1034 372
1034 117
1034 60
1033 5157
1033 4508
1033 4486
1033 1311
1033 986
1033 362
1033 68
1032 9511
1032 8983
1032 8530
1032 7119
1032 7116
1032 5524
1032 5219
1032 5062
1032 2854
1032 2740
1032 2151
1032 1236
1032 920
1032 661
1032 564
1031 7162
1031 6634
1031 3844
1031 612
1031 421
1031 7
1030 8984
1030 8249
1030 4243
1030 942
1030 213
1030 4
1029 5726
1029 5710
1029 5174
1029 3352
1029 2757
1029 2622
1029 1828
1029 1147
1029 667
1029 169
1029 10
1028 9665
1028 8712
1028 7603
1028 7518
1028 6932
1028 5777
1028 4563
1028 2953
1028 2706
1028 2511
1028 2278
1028 2211
1028 2121
1028 252
1028 217
1028 93
1027 9958
1027 9486
1027 6598
1027 3887
1027 3067
1027 1372
1027 1244
1027 941
1027 247
1027 78
1026 9269
1026 9008
1026 8374
1026 8208
1026 7028
1026 5709
1026 5649
1026 5087
1026 1781
1026 1470
1026 1172
1026 735
1026 317
1026 101
1025 9644
1025 8355
1025 7767
1025 7360
1025 7016
1025 6081
1025 5614
1025 4701
1025 3603
1025 2674
1025 1857
1025 1501
1025 847
1025 83
1025 63
1024 6464
1024 4268
1024 3679
1024 3617
1024 2360
1024 2298
1024 1975
1024 1212
1024 1023
1024 537
1024 283
1023 8247
1023 7904
1023 6645
1023 5546
1023 4301
1023 3944
1023 1579
1023 1024
1023 759
1023 182
1023 147
1022 9183
1022 5719
1022 5376
1022 5308
1022 4867
1022 3968
1022 1942
1022 1327
1022 165
1022 117
1022 3
1021 7595
1021 5932
1021 4826
1021 3912
1021 3870
1021 2923
1021 2182
1021 1917
1021 1060
1021 709
1021 589
1021 89
1020 9419
1020 7984
1020 6835
1020 6734
1020 6046
1020 5408
1020 4735
1020 3815
1020 3495
1020 2910
1020 2570
1020 1896
1020 1848
1020 1383
1020 506
1020 185
1020 65
1019 5683
1019 4802
1019 4724
1019 4349
1019 3282
1019 3038
1019 2334
1019 1358
1019 1249
1019 1187
1019 650
1019 105
1019 6
1018 7632
1018 7231
1018 6947
1018 4696
1018 3602
1018 1763
1018 197
1018 162
1018 14
1017 6472
1017 6427
1017 694
1017 633
1017 217
1016 8896
1016 5846
1016 4540
1016 3163
1016 1571
1016 1082
1016 565
1016 239
1016 227
1015 8650
1015 4993
1015 2792
1015 2526
1015 1898
1015 1757
1015 1139
1015 1073
1015 987
1015 917
1015 100
1014 9707
1014 7496
1014 6416
1014 4102
1014 2499
1014 2189
1014 523
1014 7
1014 3
1013 6083
1013 5416
1013 960
1013 366
1013 104
1012 9376
1012 8996
1012 8840
1012 7650
1012 6693
1012 6613
1012 6335
1012 4136
1012 3265
1012 1483
1012 1260
1012 859
1012 228
1012 6
1011 7213
1011 5292
1011 4609
1011 3428
1011 1304
1011 456
1011 169
1011 49
1010 6899
1010 3732
1010 2050
1010 765
1010 504
1010 317
1009 6443
1009 4476
1009 1122
1009 913
1009 633
1009 34
1008 9445
1008 7873
1008 3036
1008 1075
1008 1006
1008 844
1008 7
1007 8954
1007 8403
1007 8125
1007 4118
1007 1985
1007 655
1007 72
1007 10
1006 7722
1006 6753
1006 6145
1006 2638
1006 1008
1006 240
1006 200
1006 4
1005 9560
1005 6423
1005 3701
1005 2182
1005 385
1005 260
1005 178
1004 9429
1004 8823
1004 8326
1004 7661
1004 6234
1004 5439
1004 3669
1004 2091
1004 1834
1004 1724
1004 1176
1004 790
1004 271
1004 4
1003 5565
1003 2820
1003 941
1003 626
1003 83
1002 8575
1002 6934
1002 6874
1002 6793
1002 3325
1002 2519
1002 1392
1002 728
1002 7
1002 4
1001 5619
1001 5542
1001 3450
1001 2725
1001 1948
1001 725
1001 78
1001 3
1000 6756
1000 4563
1000 3964
1000 3926
1000 2948
1000 1666
1000 1584
1000 1097
1000 723
1000 393
1000 13
999 9532
999 6109
999 4698
999 3648
999 3110
999 2538
999 1593
999 824
999 671
999 279
998 8600
998 8451
998 7054
998 5473
998 5068
998 4412
998 3573
998 3530
998 2364
998 1581
998 1093
998 828
998 732
998 723
997 7781
997 1430
997 862
997 646
997 45
996 5544
996 3218
996 654
996 216
996 3
995 7724
995 7649
995 6891
995 5833
995 5723
995 5299
995 4395
995 4313
995 3943
995 3553
995 3388
995 2891
995 2801
995 2448
995 2157
995 1837
995 1673
995 1566
995 1374
995 67
995 63
995 5
994 9670
994 8754
994 836
994 200
994 16
993 8352
993 6846
993 3755
993 1348
993 1038
993 946
993 778
993 138
992 6485
992 2520
992 2162
992 790
992 556
992 58
991 533
991 46
991 15
990 6766
990 6138
990 4835
990 4620
990 4435
990 3775
990 3477
990 3281
990 2480
990 1988
990 1955
990 1398
990 1104
990 393
990 294
990 16
989 9981
989 2510
989 2391
989 1422
989 881
989 551
989 130
988 9807
988 8676
988 7256
988 5695
988 5481
988 5132
988 4232
988 3015
988 2577
988 1263
988 192
988 181
988 52
987 7666
987 7209
987 4901
987 4287
987 2809
987 1392
987 1015
987 851
987 165
987 150
986 9263
986 3914
986 3308
986 1567
986 1400
986 1033
986 447
986 380
986 127
985 9268
985 8157
985 7855
985 7759
985 4945
985 4308
985 2560
985 2038
985 449
985 97
985 14
984 9565
984 9415
984 9241
984 8762
984 8149
984 8140
984 7327
984 6050
984 5899
984 5848
984 5798
984 4959
984 4038
984 3704
984 3394
984 3054
984 1968
984 1589
984 1557
984 517
984 114
984 72
983 8099
983 3992
983 2381
983 485
983 228
983 166
982 7960
982 7123
982 6758
982 5937
982 4929
982 4684
982 3993
982 2864
982 1608
982 897
982 728
982 9
981 9236
981 4390
981 4105
981 2833
981 2800
981 1593
981 1504
981 392
981 120
981 11
980 6049
980 3672
980 626
980 387
980 147
979 9725
979 9410
979 8105
979 1425
979 1197
979 63
979 57
979 2
978 7702
978 6107
978 3902
978 193
978 70
978 12
977 9128
977 8959
977 4113
977 4063
977 3851
977 3097
977 2208
977 2146
977 1986
977 1794
977 417
977 153
977 38
976 9506
976 6016
976 4665
976 1977
976 1512
976 174
976 88
976 28
975 7639
975 4782
975 2618
975 626
975 345
975 184
974 7075
974 6128
974 4222
974 1751
974 402
974 393
974 4
973 4089
973 2349
973 434
973 350
973 28
972 7675
972 4672
972 2286
972 1777
972 1616
972 661
972 335
972 55
971 7853
971 7805
971 7343
971 1674
971 1487
971 1412
971 271
971 160
971 57
970 1824
970 1373
970 867
970 486
970 195
969 5197
969 3458
969 2091
969 1760
969 871
969 230
969 16
968 4394
968 44
968 8
968 4
967 8573
967 5681
967 5140
967 3658
967 357
967 127
967 117
966 6292
966 1634
966 207
966 174
966 99
965 557
965 190
965 109
964 9899
964 9680
964 7773
964 5949
964 4979
964 3762
964 2637
964 1583
964 1541
964 1418
964 897
964 588
964 4
963 9361
963 7808
963 5854
963 5473
963 4708
963 4687
963 3933
963 3411
963 3253
963 3249
963 1862
963 1475
963 1202
963 784
963 588
963 4
962 434
962 10
962 5
961 8192
961 6839
961 5969
961 1312
961 41
961 5
961 4
960 2818
960 2109
960 1846
960 1284
960 1013
960 862
960 156
960 45
959 6691
959 6595
959 5951
959 4961
959 3565
959 2898
959 2035
959 1764
959 1511
959 325
959 83
959 68
958 9552
958 9301
958 8102
958 5749
958 5566
958 2846
958 2429
958 1887
958 1688
958 1650
958 1160
958 904
958 612
958 102
957 9316
957 4395
957 4003
957 2188
957 1570
957 34
957 14
957 12
956 9974
956 8253
956 5616
956 4044
956 3920
956 3278
956 3195
956 3026
956 2731
956 2552
956 1798
956 1179
956 937
956 706
956 560
955 8998
955 8006
955 7635
955 5780
955 2456
955 1502
955 827
955 266
955 18
954 6204
954 1826
954 1756
954 1369
954 368
954 355
954 9
953 9877
953 9386
953 8795
953 8627
953 8344
953 7275
953 5361
953 5351
953 4721
953 4352
953 3784
953 1784
953 1650
953 1334
953 1041
953 601
953 537
953 131
952 9464
952 4411
952 3096
952 2608
952 2316
952 750
952 102
952 41
951 9676
951 9368
951 8913
951 6648
951 5842
951 5089
951 4937
951 4469
951 2771
951 2591
951 1044
951 471
951 330
951 113
950 9912
950 9631
950 6157
950 5959
950 5901
950 4380
950 3606
950 3467
950 1261
950 410
950 393
950 0
949 9792
949 9608
949 6115
949 5245
949 5182
949 1975
949 1860
949 1579
949 640
949 260
949 126
948 9604
948 6766
948 6710
948 5888
948 4768
948 2793
948 2306
948 1306
948 1098
948 894
948 374
948 300
947 9906
947 8058
947 3956
947 3556
947 3330
947 2747
947 2680
947 2544
947 1797
947 1545
947 1245
947 474
947 373
947 3
946 7819
946 7463
946 6317
946 5119
946 2898
946 2824
946 2524
946 1992
946 1396
946 1327
946 1178
946 993
946 224
946 158
946 0
945 2098
945 1691
945 1322
945 13
945 11
945 7
944 9921
944 5967
944 5198
944 2729
944 1161
944 7
944 6
944 5
943 2861
943 1740
943 905
943 897
943 791
942 5118
942 2289
942 1030
942 495
942 107
942 81
941 7463
941 6121
941 5188
941 4981
941 2216
941 1116
941 1027
941 1003
941 705
941 60
941 6
940 9563
940 5716
940 5064
940 4046
940 1717
940 430
940 367
940 91
939 5775
939 3817
939 3401
939 3276
939 1373
939 1256
939 880
939 310
939 135
938 1215
938 627
938 241
938 14
937 9405
937 5839
937 4949
937 4121
937 3405
937 3131
937 2689
937 2271
937 2073
937 1256
937 956
937 431
937 326
937 246
936 6259
936 6161
936 3461
936 1432
936 1281
936 375
936 247
936 193
935 9693
935 9093
935 9079
935 8737
935 7606
935 7591
935 6826
935 6252
935 5629
935 5359
935 4763
935 4333
935 4073
935 3748
935 3075
935 2125
935 1628
935 1519
935 514
935 363
935 31
934 9048
934 6767
934 4930
934 2823
934 1893
934 1598
934 1555
934 1470
934 1268
934 809
934 624
934 301
933 6456
933 2484
933 1103
933 508
933 503
933 55
932 9808
932 8592
932 6462
932 6231
932 5883
932 5842
932 5430
932 4777
932 3928
932 3801
932 3379
932 3121
932 2846
932 1139
932 583
932 410
932 60
931 9995
931 8932
931 7035
931 5354
931 4930
931 1815
931 1480
931 778
931 479
931 140
930 7541
930 6085
930 5687
930 3719
930 2764
930 2424
930 380
930 157
930 4
929 9980
929 7129
929 6161
929 5382
929 4703
929 4297
929 3398
929 2672
929 1296
929 1188
929 1094
929 633
929 502
929 187
928 1897
928 1789
928 174
928 26
928 9
927 8280
927 7056
927 6260
927 5658
927 3168
927 3009
927 2307
927 1375
927 155
927 23
927 0
926 8836
926 3226
926 3051
926 2388
926 1902
926 629
926 556
926 91
925 200
925 90
925 37
924 5841
924 3628
924 2238
924 1762
924 782
924 12
924 6
923 6829
923 6637
923 1590
923 478
923 309
923 68
922 7693
922 7447
922 6870
922 5152
922 4765
922 4290
922 3413
922 1649
922 256
922 135
922 23
921 7661
921 4883
921 4619
921 4231
921 2824
921 2501
921 1604
921 1526
921 901
921 616
921 110
920 6517
920 5334
920 5161
920 4619
920 4040
920 2905
920 1236
920 1032
920 831
920 265
920 24
919 3787
919 873
919 441
919 124
918 9015
918 7869
918 7857
918 6953
918 3440
918 2789
918 2664
918 1946
918 416
918 351
918 203
917 9569
917 9564
917 7164
917 6789
917 5770
917 5523
917 5297
917 5171
917 5106
917 4859
917 4398
917 3351
917 2973
917 2957
917 2851
917 2594
917 2368
917 2192
917 1015
917 260
917 143
917 13
916 5389
916 2513
916 2010
916 1506
916 1488
916 252
916 35
916 12
915 5134
915 4764
915 1755
915 1268
915 508
915 223
915 192
914 6642
914 5254
914 3464
914 2798
914 456
914 190
914 125
913 7804
913 5895
913 5669
913 3682
913 2589
913 1009
913 437
913 255
913 45
912 6516
912 5083
912 4607
912 4334
912 3925
912 1145
912 890
912 621
912 9
911 9963
911 7626
911 6552
911 5979
911 4592
911 4418
911 2905
911 2245
911 1416
911 825
911 343
911 174
910 6900
910 4521
910 3906
910 3626
910 2794
910 2566
910 2419
910 1713
910 705
910 540
910 26
909 9450
909 7894
909 5645
909 4946
909 3603
909 1629
909 1129
909 850
909 55
909 30
908 5211
908 4280
908 301
908 23
908 7
907 419
907 21
907 0
906 7157
906 6658
906 656
906 136
906 12
905 9743
905 8024
905 6556
905 2420
905 943
905 637
905 120
905 45
904 9723
904 8276
904 7435
904 7024
904 4535
904 3715
904 2369
904 2119
904 2013
904 1333
904 1083
904 958
904 751
904 44
904 36
903 6778
903 5412
903 4035
903 850
903 714
903 481
902 9211
902 8269
902 6995
902 3761
902 2342
902 1378
902 1195
902 772
902 727
902 5
901 9736
901 8895
901 8574
901 7645
901 6556
901 6280
901 6145
901 4965
901 4119
901 4069
901 3654
901 3622
901 2861
901 2582
901 1774
901 1073
901 921
901 191
901 153
901 4
900 9180
900 6758
900 6601
900 2818
900 867
900 204
900 59
899 7566
899 7224
899 4911
899 2257
899 363
899 102
899 10
898 9653
898 8364
898 4805
898 29
898 28
898 2
897 8394
897 8007
897 7889
897 7343
897 4501
897 3977
897 3837
897 3653
897 2463
897 982
897 964
897 943
897 433
897 9
897 4
896 9641
896 5054
896 1349
896 742
896 117
896 63
895 8940
895 8723
895 8377
895 5547
895 4363
895 3189
895 2983
895 1109
895 696
895 240
895 6
894 7811
894 7505
894 4186
894 3596
894 2219
894 1320
894 1223
894 1155
894 1084
894 948
894 672
894 30
894 9
893 7088
893 6680
893 4385
893 4133
893 3248
893 2576
893 1738
893 874
893 380
893 24
892 2716
892 2483
892 2232
892 387
892 310
892 255
891 8463
891 7573
891 4553
891 3461
891 2082
891 765
891 286
891 260
890 6254
890 5047
890 4487
890 4455
890 3338
890 2476
890 1190
890 912
890 138
890 74
890 2
889 7906
889 7449
889 5077
889 4483
889 3125
889 200
889 147
889 2
888 9323
888 7996
888 3005
888 2542
888 2065
888 254
888 45
888 0
887 8277
887 7591
887 6759
887 6031
887 4574
887 1901
887 307
887 272
887 126
886 8427
886 7006
886 2616
886 1746
886 1640
886 1387
886 309
886 113
886 14
885 5551
885 4625
885 3818
885 2946
885 538
885 247
885 106
884 9202
884 8743
884 5228
884 4024
884 3281
884 1540
884 1432
884 748
884 737
884 16
883 9904
883 8892
883 7836
883 6288
883 6082
883 5308
883 4517
883 3997
883 3967
883 3217
883 3100
883 2433
883 1645
883 545
883 520
883 59
882 7555
882 5431
882 2323
882 387
882 265
882 178
881 8568
881 8375
881 6199
881 6161
881 2821
881 2675
881 1870
881 1587
881 1371
881 1361
881 1245
881 989
881 343
881 121
881 78
880 9934
880 8315
880 6408
880 5705
880 3216
880 2427
880 2359
880 1377
880 1239
880 939
880 326
880 136
880 7
879 7086
879 6798
879 5934
879 503
879 284
879 192
878 9690
878 6236
878 780
878 177
878 6
877 4846
877 265
877 151
877 17
876 9012
876 8701
876 8254
876 6087
876 5778
876 3526
876 3071
876 1405
876 842
876 416
876 65
875 8316
875 4604
875 4216
875 3537
875 415
875 110
875 7
874 2784
874 2625
874 2125
874 893
874 472
874 366
874 232
873 8608
873 7035
873 5402
873 2828
873 2249
873 2160
873 1563
873 1500
873 1401
873 919
873 480
873 204
873 137
872 8272
872 3860
872 3346
872 1536
872 1369
872 1320
872 565
872 474
872 106
871 8078
871 7791
871 7228
871 4911
871 4230
871 4014
871 3762
871 3328
871 3060
871 2434
871 1539
871 1330
871 1096
871 1062
871 969
871 542
871 128
871 3
870 8124
870 7698
870 5992
870 5972
870 5690
870 5459
870 4437
870 4418
870 3314
870 2918
870 2165
870 2070
870 1976
870 1859
870 1828
870 1686
870 1316
870 263
870 171
870 14
869 9142
869 7653
869 7556
869 6777
869 6197
869 3895
869 2275
869 2005
869 1806
869 1248
869 549
869 291
869 1
868 2412
868 1287
868 503
868 254
868 100
867 9679
867 9465
867 8076
867 5631
867 4170
867 3018
867 2583
867 1799
867 1446
867 970
867 900
867 686
867 192
867 98
866 9685
866 6960
866 6575
866 6084
866 4588
866 4261
866 3150
866 3111
866 2603
866 2180
866 1722
866 1362
866 1332
866 1274
866 744
866 23
866 18
865 9414
865 9324
865 6830
865 5310
865 3522
865 3060
865 2444
865 1367
865 463
865 191
865 5
864 8863
864 6007
864 3613
864 2629
864 1050
864 124
864 57
864 14
863 9706
863 8367
863 8350
863 7234
863 7184
863 4751
863 3421
863 2644
863 2430
863 2275
863 1742
863 1577
863 401
863 176
863 7
862 9688
862 7618
862 4881
862 2468
862 1938
862 1889
862 1701
862 1280
862 997
862 960
862 228
862 83
862 7
861 9921
861 7289
861 6664
861 5891
861 3815
861 3241
861 3109
861 1973
861 1891
861 1813
861 767
861 387
861 7
860 8664
860 7834
860 7209
860 6970
860 5153
860 4445
860 3841
860 3426
860 3154
860 2276
860 1940
860 1455
860 1128
860 1095
860 572
860 90
860 41
859 8466
859 7441
859 6215
859 5577
859 5026
859 4453
859 4386
859 1012
859 713
859 147
859 78
858 9638
858 4937
858 2956
858 687
858 431
858 57
857 6692
857 5478
857 4242
857 4065
857 3469
857 501
857 197
857 143
856 9317
856 6109
856 2925
856 2355
856 2033
856 1942
856 1561
856 603
856 510
856 471
855 6958
855 4225
855 3469
855 3450
855 3030
855 2609
855 782
855 313
855 106
854 9484
854 6954
854 4945
854 5
854 4
854 0
853 7101
853 4825
853 3266
853 1178
853 670
853 241
853 174
852 5115
852 2908
852 1999
852 1065
852 117
852 44
852 9
851 9289
851 9143
851 8873
851 7737
851 7703
851 6668
851 6229
851 6016
851 5495
851 4712
851 3341
851 3186
851 1906
851 1049
851 987
851 535
851 55
851 12
850 8856
850 7361
850 6066
850 5346
850 3653
850 2867
850 1972
850 1807
850 1290
850 909
850 903
850 342
850 45
850 7
849 4957
849 4265
849 2820
849 2214
849 1865
849 1454
849 696
849 415
849 93
848 6857
848 5283
848 2365
848 1751
848 816
848 813
848 115
847 9064
847 8569
847 7204
847 3858
847 2942
847 2708
847 2416
847 2196
847 1025
847 78
847 11
847 0
846 1169
846 599
846 255
846 12
845 9190
845 7364
845 6058
845 5238
845 4976
845 4752
845 4496
845 3650
845 3614
845 2835
845 1850
845 1719
845 1586
845 388
845 241
845 207
844 7834
844 5264
844 5207
844 4677
844 4143
844 3073
844 1971
844 1181
844 1008
844 389
844 252
844 227
843 7378
843 6893
843 4743
843 4267
843 3890
843 3816
843 3427
843 3029
843 1733
843 1692
843 148
843 93
843 65
842 4765
842 2291
842 876
842 633
842 26
842 7
841 9913
841 9283
841 4992
841 4942
841 4804
841 3769
841 3315
841 2934
841 2865
841 1820
841 1200
841 480
841 108
841 1
840 5677
840 4340
840 1531
840 1139
840 704
840 160
840 52
839 6110
839 6014
839 3011
839 2340
839 1436
839 1211
839 566
839 528
839 327
838 8393
838 4998
838 3239
838 1261
838 1074
838 828
838 611
838 83
837 8301
837 7357
837 7270
837 4135
837 3592
837 2857
837 2507
837 1708
837 1309
837 186
837 91
837 0
836 9087
836 8567
836 5304
836 4796
836 4375
836 3862
836 1828
836 1702
836 1296
836 994
836 751
836 415
836 202
835 9957
835 5358
835 2393
835 723
835 510
835 125
834 8911
834 8389
834 8122
834 7515
834 6722
834 5965
834 5239
834 4856
834 4015
834 3910
834 2258
834 1394
834 1084
834 742
834 599
834 77
833 9338
833 7681
833 6361
833 3727
833 2840
833 1730
833 132
833 79
833 6
832 5196
832 3066
832 1892
832 1561
832 825
832 605
832 172
831 8210
831 6295
831 5016
831 920
831 60
831 37
831 29
830 7025
830 1656
830 532
830 130
830 42
829 1169
829 243
829 150
829 0
828 6687
828 5751
828 4972
828 3738
828 3721
828 2917
828 2777
828 1316
828 1274
828 998
828 838
828 81
828 46
828 30
827 7123
827 7101
827 7005
827 6512
827 3955
827 3299
827 3233
827 2925
827 2223
827 1818
827 1458
827 1051
827 955
827 345
827 215
827 184
826 9100
826 9062
826 9054
826 8084
826 8047
826 6572
826 5743
826 4824
826 4488
826 3425
826 3396
826 2950
826 2819
826 2563
826 2511
826 2497
826 2309
826 1690
826 762
826 695
826 39
825 9936
825 9343
825 8358
825 7511
825 7384
825 7329
825 7261
825 7229
825 4958
825 4898
825 3715
825 2871
825 2562
825 2475
825 2360
825 2353
825 2080
825 1921
825 911
825 832
825 486
825 153
825 26
824 8931
824 7983
824 7957
824 5235
824 3725
824 3065
824 2971
824 2508
824 1945
824 1812
824 1783
824 999
824 786
824 670
824 51
823 7906
823 6320
823 1820
823 1043
823 540
823 248
823 124
822 3665
822 1995
822 734
822 529
822 5
821 4476
821 2224
821 2071
821 781
821 678
821 41
820 9862
820 9795
820 9593
820 8885
820 7434
820 5570
820 4675
820 4453
820 2136
820 1438
820 391
820 335
820 198
819 9884
819 9257
819 7709
819 5626
819 4233
819 2650
819 2005
819 1941
819 735
819 317
819 235
818 8730
818 8653
818 7871
818 7064
818 6659
818 6032
818 5676
818 4626
818 4433
818 2735
818 2312
818 2008
818 1826
818 1819
818 1793
818 1448
818 1121
818 649
818 400
818 7
817 6598
817 5095
817 20
817 8
817 3
816 4976
816 4827
816 1724
816 1661
816 1145
816 848
816 738
816 558
816 33
815 9919
815 5631
815 4803
815 4495
815 4438
815 3686
815 3577
815 3114
815 651
815 43
815 16
814 7120
814 3434
814 2259
814 1897
814 1048
814 806
814 288
814 166
813 6149
813 5076
813 4589
813 1797
813 1150
813 848
813 753
813 135
813 7
812 6657
812 3895
812 1870
812 1829
812 1469
812 1341
812 790
812 783
812 43
811 1429
811 391
811 51
811 39
810 2142
810 638
810 332
810 4
809 8732
809 8245
809 8144
809 7464
809 6673
809 5940
809 5906
809 5342
809 5156
809 4952
809 4604
809 4548
809 4480
809 4341
809 3948
809 3751
809 3693
809 3570
809 3323
809 3059
809 2758
809 2539
809 1564
809 1220
809 1082
809 934
809 249
809 74
809 53
808 9627
808 9245
808 7963
808 4931
808 2168
808 1596
808 1525
808 1086
808 559
808 255
808 144
807 3809
807 1307
807 335
807 269
807 255
806 9534
806 9442
806 9104
806 8763
806 8456
806 7633
806 7593
806 7329
806 7103
806 6587
806 5055
806 4085
806 3834
806 3402
806 3207
806 2523
806 2363
806 2048
806 1983
806 1873
806 1228
806 1073
806 1059
806 814
806 532
806 410
806 264
805 9182
805 7774
805 117
805 72
805 3
804 7301
804 5912
804 5750
804 5262
804 3714
804 310
804 118
804 27
803 6866
803 5067
803 3291
803 2972
803 2854
803 1510
803 468
803 37
803 7
802 4159
802 4004
802 2847
802 1212
802 730
802 279
802 29
801 446
801 253
801 10
800 149
800 100
800 50
799 9259
799 8920
799 7164
799 6994
799 6883
799 5506
799 5144
799 4717
799 4126
799 1605
799 434
799 265
799 7
798 9979
798 7996
798 7823
798 3845
798 1657
798 707
798 125
798 0
797 7837
797 7291
797 2579
797 2168
797 1925
797 1067
797 346
797 214
797 5
796 9190
796 8473
796 5384
796 5338
796 4630
796 4180
796 3792
796 3782
796 3754
796 3504
796 3486
796 2731
796 2397
796 1808
796 1197
796 637
796 228
796 58
795 7387
795 7230
795 7122
795 5885
795 3143
795 3119
795 280
795 11
795 7
794 6978
794 6171
794 5234
794 4974
794 4655
794 4053
794 751
794 224
794 7
793 9553
793 9369
793 5636
793 2650
793 2162
793 723
793 147
793 123
792 8192
792 3457
792 3115
792 2138
792 182
792 30
792 3
791 8314
791 6926
791 6825
791 6385
791 5633
791 5184
791 5162
791 4218
791 3634
791 3454
791 2413
791 1566
791 1219
791 1213
791 1159
791 943
791 736
791 683
791 228
790 9849
790 9474
790 7651
790 6055
790 4634
790 3260
790 2952
790 2498
790 2225
790 2037
790 1542
790 1350
790 1196
790 1004
790 992
790 812
790 673
790 506
790 458
789 1417
789 345
789 245
789 196
788 389
788 7
788 4
787 7094
787 6929
787 4829
787 3124
787 2184
787 263
787 33
787 7
786 8094
786 8033
786 5664
786 3264
786 824
786 475
786 4
786 3
785 7382
785 3153
785 645
785 634
785 392
784 9875
784 4808
784 3762
784 3739
784 2669
784 2428
784 1827
784 1772
784 963
784 150
784 141
784 6
783 8306
783 6813
783 6208
783 5941
783 5772
783 5366
783 3345
783 3267
783 3204
783 2584
783 2470
783 2219
783 2173
783 2106
783 1313
783 812
783 327
783 143
783 108
782 9113
782 8592
782 8483
782 8188
782 6423
782 6205
782 5995
782 4208
782 3610
782 3341
782 2702
782 2508
782 2220
782 924
782 855
782 517
782 217
782 9
781 8028
781 6497
781 6081
781 4961
781 4913
781 4271
781 4249
781 4173
781 821
781 160
781 13
781 11
780 5800
780 3358
780 878
780 527
780 312
780 75
779 8775
779 7601
779 7017
779 6583
779 6204
779 6125
779 5688
779 5487
779 5014
779 4652
779 2659
779 1665
779 1517
779 676
779 138
779 120
778 9855
778 9655
778 9123
778 8553
778 7541
778 7161
778 7022
778 6586
778 4483
778 3488
778 2690
778 2385
778 993
778 931
778 638
778 410
778 271
777 2373
777 514
777 395
777 102
776 8024
776 5814
776 4639
776 3523
776 3271
776 2693
776 2421
776 2356
776 1270
776 300
776 156
776 38
775 8681
775 7788
775 6932
775 5754
775 5327
775 3244
775 3243
775 3181
775 2690
775 2342
775 2191
775 1739
775 449
775 44
775 15
774 6555
774 6205
774 6195
774 5847
774 3648
774 2822
774 1747
774 1597
774 1474
774 1460
774 389
774 375
774 160
773 622
773 577
773 28
772 9937
772 9699
772 9487
772 9350
772 4046
772 3556
772 2920
772 2689
772 2507
772 1154
772 902
772 633
772 205
772 98
771 7203
771 6682
771 4030
771 3820
771 3703
771 3581
771 2896
771 2546
771 427
771 305
771 43
770 8054
770 4107
770 1917
770 252
770 30
770 23
769 7967
769 3666
769 3444
769 2260
769 2217
769 1074
769 707
769 310
769 227
768 9539
768 8031
768 5543
768 4950
768 2280
768 657
768 455
768 228
767 9124
767 7919
767 7228
767 6773
767 6684
767 5724
767 5670
767 4928
767 4551
767 3760
767 3662
767 2493
767 2477
767 1471
767 1453
767 861
767 651
767 159
767 31
766 8597
766 2885
766 420
766 55
766 0
765 4008
765 1810
765 1010
765 891
765 393
765 222
765 92
764 6781
764 6521
764 3303
764 2614
764 1716
764 33
764 5
764 2
763 8105
763 3938
763 3811
763 1852
763 502
763 480
763 178
762 8239
762 6341
762 2899
762 2332
762 1932
762 826
762 207
762 27
762 4
761 416
761 324
761 199
760 8426
760 8187
760 6443
760 2582
760 2319
760 1292
760 260
760 239
760 123
759 6865
759 6765
759 5528
759 3144
759 2634
759 1023
759 755
759 718
759 46
758 5108
758 4596
758 193
758 178
758 14
757 5667
757 5410
757 1151
757 141
757 46
757 41
756 4699
756 3087
756 176
756 41
756 0
755 8067
755 7153
755 6550
755 5579
755 5271
755 5199
755 5025
755 3652
755 2367
755 2136
755 1533
755 759
755 74
755 59
755 6
754 4535
754 4482
754 2688
754 2344
754 1525
754 1360
754 374
754 137
754 7
753 7258
753 6158
753 5566
753 3923
753 2538
753 2053
753 1734
753 1063
753 1045
753 813
753 328
753 104
753 6
752 5306
752 5048
752 3006
752 2050
752 1548
752 556
752 122
752 16
751 8987
751 6695
751 5634
751 4716
751 3364
751 904
751 836
751 794
751 723
751 560
751 182
750 7425
750 2623
750 1521
750 952
750 723
750 260
750 33
749 4957
749 4855
749 2239
749 1677
749 1290
749 492
749 392
749 23
748 9288
748 9045
748 8530
748 8013
748 6157
748 6088
748 5980
748 5948
748 5947
748 5890
748 5235
748 5224
748 4746
748 4532
748 3595
748 3127
748 2774
748 2499
748 2198
748 1801
748 1648
748 1445
748 1414
748 1325
748 884
748 702
748 210
748 188
747 9562
747 8551
747 8215
747 8083
747 8062
747 7497
747 6213
747 5097
747 1686
747 512
747 107
747 92
746 8501
746 7705
746 7539
746 6850
746 5659
746 1421
746 508
746 258
746 45
745 8218
745 7526
745 6106
745 4471
745 3984
745 2091
745 1134
745 592
745 33
745 20
744 9896
744 9177
744 8206
744 1451
744 866
744 288
744 285
744 237
743 9095
743 3410
743 2559
743 2269
743 1177
743 485
743 74
743 9
742 8661
742 8623
742 8459
742 7723
742 6899
742 6679
742 6135
742 5672
742 4266
742 4157
742 3759
742 2853
742 2073
742 1315
742 896
742 834
742 400
742 274
742 244
741 6559
741 5238
741 5203
741 4498
741 2573
741 310
741 126
741 37
740 9524
740 8675
740 7454
740 6637
740 6371
740 5405
740 4208
740 3956
740 3464
740 3101
740 2509
740 1495
740 1163
740 1140
740 628
740 420
740 66
739 3361
739 1552
739 565
739 476
739 358
738 9020
738 7608
738 7362
738 6470
738 6372
738 5163
738 4478
738 2113
738 1967
738 816
738 5
738 2
738 1
737 9205
737 4678
737 884
737 7
737 3
737 1
736 4591
736 3200
736 2597
736 2126
736 1947
736 1778
736 1633
736 1311
736 791
736 713
736 364
736 32
735 6623
735 5832
735 3794
735 3630
735 3320
735 2952
735 2747
735 2447
735 1159
735 1026
735 819
735 729
735 147
735 110
734 8833
734 6011
734 5942
734 4338
734 3197
734 2791
734 2607
734 2189
734 822
734 416
734 207
734 117
733 7916
733 6689
733 5556
733 5426
733 4916
733 3551
733 3323
733 3187
733 1912
733 1644
733 1344
733 626
733 239
733 165
732 4223
732 3391
732 1071
732 998
732 301
732 45
732 6
731 2775
731 181
731 122
731 7
730 8142
730 4689
730 3720
730 2740
730 802
730 492
730 361
730 318
729 9189
729 7917
729 7563
729 6425
729 6075
729 5319
729 4171
729 2915
729 2818
729 2770
729 2713
729 1416
729 1054
729 735
729 151
729 90
729 28
728 6358
728 6060
728 5336
728 4703
728 4098
728 3741
728 3587
728 3350
728 1704
728 1574
728 1002
728 982
728 369
728 117
728 5
727 7813
727 7295
727 3061
727 1234
727 902
727 627
727 192
727 2
726 8498
726 6837
726 2612
726 2238
726 303
726 228
726 45
725 9606
725 6786
725 6260
725 5849
725 5636
725 4796
725 4206
725 1853
725 1001
725 623
725 436
725 33
724 4006
724 3903
724 3749
724 1961
724 1926
724 1738
724 258
724 188
724 7
723 9599
723 9513
723 8490
723 8305
723 8269
723 7282
723 6838
723 6830
723 6266
723 5949
723 5667
723 5141
723 4766
723 4039
723 2377
723 2337
723 2169
723 2001
723 1996
723 1737
723 1586
723 1341
723 1309
723 1217
723 1000
723 998
723 835
723 793
723 751
723 750
723 648
723 255
723 240
722 5885
722 5735
722 4213
722 2358
722 2149
722 1066
722 572
722 478
722 100
721 7893
721 4880
721 2488
721 1792
721 1224
721 596
721 286
721 127
720 9833
720 8587
720 8492
720 7680
720 7575
720 6939
720 6104
720 5015
720 3052
720 2329
720 2186
720 1731
720 1493
720 1100
720 330
720 206
720 170
719 8327
719 4844
719 4830
719 4784
719 3026
719 2729
719 20
719 11
719 2
718 8141
718 6311
718 5054
718 4107
718 3139
718 2410
718 2280
718 2047
718 759
718 436
718 390
718 4
717 9900
717 8481
717 5892
717 5017
717 4891
717 4173
717 3824
717 2842
717 2115
717 1079
717 331
717 92
717 75
716 9527
716 8360
716 7752
716 7170
716 5350
716 1978
716 523
716 77
716 28
715 2286
715 1127
715 142
715 61
715 60
714 6219
714 5642
714 3699
714 3511
714 1503
714 903
714 605
714 127
714 0
713 8701
713 7519
713 6983
713 6370
713 6358
713 6102
713 5452
713 5375
713 5163
713 3593
713 1599
713 1324
713 1240
713 1089
713 859
713 736
713 577
713 244
713 72
712 9852
712 8328
712 8177
712 6822
712 6238
712 5822
712 5192
712 2983
712 2884
712 2823
712 2633
712 2411
712 633
712 550
712 111
711 9458
711 8079
711 6804
711 6436
711 5318
711 5066
711 4241
711 3631
711 442
711 242
711 23
710 9175
710 7090
710 6160
710 5347
710 3661
710 3646
710 3446
710 2723
710 2406
710 2272
710 2256
710 1738
710 675
710 484
710 91
709 7761
709 7307
709 5646
709 4783
709 2506
709 1701
709 1623
709 1413
709 1021
709 662
709 76
709 27
708 8651
708 8326
708 7840
708 7224
708 7207
708 7029
708 6974
708 6189
708 5980
708 5415
708 4888
708 4848
708 4837
708 4807
708 4478
708 4028
708 3730
708 3416
708 3008
708 2958
708 2803
708 2450
708 2358
708 2348
708 2079
708 1970
708 1764
708 1195
708 1128
708 199
708 110
708 50
707 9935
707 8960
707 7702
707 7224
707 5598
707 3991
707 1634
707 1600
707 1277
707 1265
707 798
707 769
707 665
707 204
707 59
706 9757
706 7178
706 2379
706 1108
706 956
706 477
706 363
706 152
705 9796
705 9063
705 5999
705 5991
705 5105
705 4957
705 4451
705 3301
705 2062
705 1683
705 1080
705 941
705 910
705 613
705 100
705 77
704 9573
704 7676
704 7452
704 6894
704 6270
704 5531
704 4332
704 4321
704 3637
704 3451
704 2768
704 2758
704 2180
704 1088
704 840
704 135
704 24
704 7
703 560
703 271
703 260
702 9272
702 7012
702 6836
702 6363
702 3785
702 3379
702 3302
702 1922
702 1920
702 1067
702 748
702 91
702 3
702 2
701 2752
701 558
701 403
701 160
700 7785
700 4838
700 4338
700 3697
700 2470
700 1968
700 583
700 110
700 31
699 6588
699 4265
699 2715
699 2627
699 2450
699 1712
699 608
699 92
699 17
698 8544
698 7495
698 6237
698 6110
698 6090
698 5902
698 5364
698 4376
698 4300
698 3907
698 3347
698 3231
698 2701
698 2262
698 2039
698 1714
698 398
698 232
698 28
697 8208
697 6015
697 5778
697 4264
697 3342
697 2978
697 2674
697 2655
697 2308
697 2261
697 2120
697 2057
697 1931
697 1806
697 1571
697 1491
697 274
697 59
697 43
696 7726
696 7497
696 6515
696 5312
696 4811
696 4268
696 4185
696 3835
696 3400
696 3105
696 2396
696 2285
696 2277
696 1443
696 1385
696 1262
696 895
696 849
696 545
696 77
696 49
695 9052
695 5367
695 2087
695 1862
695 826
695 342
695 315
695 45
694 4676
694 1629
694 1017
694 165
694 153
694 76
693 7539
693 6046
693 5695
693 5533
693 192
693 115
693 6
692 9216
692 3605
692 3101
692 1904
692 1072
692 240
692 171
692 64
691 8452
691 8450
691 8200
691 7456
691 5832
691 5071
691 4835
691 3894
691 3408
691 3175
691 2832
691 2104
691 495
691 52
691 3
690 9289
690 8986
690 8954
690 8334
690 3264
690 3228
690 1101
690 367
690 30
690 23
689 8244
689 5318
689 4879
689 4331
689 3583
689 2315
689 1618
689 410
689 68
689 44
688 9897
688 8576
688 7970
688 7930
688 7778
688 4896
688 3397
688 2680
688 2636
688 2179
688 2167
688 2022
688 1751
688 472
688 226
688 209
687 8248
687 7807
687 6563
687 3035
687 1480
687 858
687 213
687 180
687 92
686 7978
686 6362
686 5860
686 2129
686 1856
686 867
686 164
686 33
686 0
685 6547
685 5530
685 5180
685 264
685 131
685 3
684 9254
684 8358
684 3271
684 367
684 207
684 23
683 9514
683 8905
683 8854
683 8556
683 8125
683 6350
683 5550
683 5088
683 4872
683 3965
683 3908
683 3316
683 3165
683 3135
683 2258
683 2228
683 2009
683 1919
683 1549
683 1526
683 1263
683 791
683 411
683 102
683 0
682 3297
682 1050
682 642
682 78
682 0
681 2967
681 591
681 153
681 4
680 7444
680 7432
680 6761
680 4472
680 3790
680 3465
680 3324
680 2581
680 551
680 211
680 26
679 8298
679 7873
679 7205
679 6395
679 5507
679 4715
679 1802
679 522
679 301
679 118
678 8376
678 8252
678 8136
678 7956
678 7392
678 7182
678 5315
678 5252
678 5145
678 4581
678 4142
678 3888
678 3811
678 3279
678 3148
678 3012
678 2665
678 2662
678 2516
678 2495
678 2125
678 1464
678 821
678 613
678 59
678 51
677 9791
677 8273
677 8193
677 7579
677 5587
677 5578
677 4121
677 3136
677 2709
677 2207
677 2060
677 1652
677 1435
677 1426
677 556
677 291
677 0
676 9718
676 9237
676 8284
676 6821
676 4656
676 3998
676 779
676 655
676 560
676 84
675 7634
675 7461
675 6694
675 3205
675 2439
675 1817
675 1383
675 1230
675 710
675 584
675 15
675 0
674 8889
674 7896
674 7596
674 4410
674 3794
674 2289
674 1858
674 387
674 214
674 0
673 9018
673 8656
673 6717
673 6276
673 5882
673 5272
673 5241
673 5032
673 3773
673 2948
673 2680
673 2338
673 2220
673 2108
673 1974
673 1966
673 1216
673 790
673 387
673 127
673 93
672 9355
672 7283
672 3894
672 2020
672 1844
672 1665
672 1149
672 894
672 293
672 253
672 138
671 7793
671 6894
671 4507
671 4364
671 3441
671 2943
671 2640
671 1875
671 1548
671 1463
671 999
671 412
671 197
671 30
670 9209
670 8906
670 7014
670 5333
670 4004
670 2341
670 2279
670 2072
670 1798
670 1619
670 1574
670 853
670 824
670 540
670 84
670 52
669 9720
669 7166
669 5608
669 4035
669 4001
669 3586
669 2676
669 1762
669 661
669 595
669 233
668 8881
668 7675
668 6952
668 6182
668 6179
668 3682
668 2525
668 2378
668 1923
668 482
668 51
668 32
667 9057
667 8926
667 8684
667 7372
667 7208
667 6468
667 5697
667 4822
667 3784
667 2946
667 2927
667 1245
667 1162
667 1075
667 1029
667 76
667 33
667 7
666 8876
666 8688
666 7109
666 6101
666 4669
666 4097
666 1752
666 1329
666 615
666 208
666 43
665 6005
665 5715
665 2049
665 1264
665 707
665 387
665 187
665 84
664 9854
664 7751
664 6155
664 5367
664 4805
664 4313
664 1887
664 1644
664 184
664 31
664 28
663 122
663 7
663 2
662 8307
662 5945
662 5758
662 5529
662 3224
662 709
662 226
662 178
662 55
661 8153
661 5937
661 5896
661 5508
661 5065
661 4901
661 4675
661 4560
661 4192
661 3382
661 2026
661 1779
661 1032
661 972
661 669
661 302
661 110
661 27
660 8118
660 7235
660 6257
660 2829
660 74
660 61
660 35
659 8707
659 6441
659 5596
659 3971
659 1842
659 520
659 332
659 13
658 6027
658 642
658 435
658 18
657 5770
657 3413
657 768
657 554
657 541
657 123
656 8013
656 7145
656 6158
656 5677
656 4061
656 1949
656 906
656 378
656 100
656 2
655 9689
655 9508
655 8058
655 7815
655 7415
655 7352
655 6851
655 6684
655 6627
655 5466
655 4663
655 4267
655 4261
655 4147
655 2963
655 2920
655 2043
655 1757
655 1569
655 1551
655 1257
655 1182
655 1007
655 676
655 510
655 52
655 7
654 9961
654 7883
654 7401
654 6864
654 6184
654 6038
654 5793
654 4131
654 3842
654 3643
654 2930
654 2322
654 1937
654 1509
654 1092
654 996
654 651
654 588
654 391
653 9922
653 8064
653 6057
653 4958
653 3415
653 3066
653 2964
653 2867
653 409
653 333
653 5
652 1130
652 222
652 212
652 75
651 9603
651 7858
651 5391
651 3843
651 3560
651 2319
651 1532
651 1258
651 815
651 767
651 654
651 493
651 261
651 212
650 6387
650 4392
650 3387
650 2519
650 2174
650 1494
650 1019
650 468
650 192
650 28
649 7964
649 7589
649 4984
649 4458
649 1148
649 818
649 397
649 69
649 44
648 8981
648 8506
648 8366
648 7834
648 7143
648 6605
648 6240
648 5470
648 4965
648 4641
648 4607
648 4233
648 4043
648 3750
648 3589
648 3093
648 2791
648 2360
648 1736
648 1454
648 1356
648 1174
648 723
648 502
648 400
648 44
647 542
647 285
647 46
646 5467
646 2543
646 997
646 335
646 315
646 51
645 8838
645 7412
645 6959
645 6116
645 5862
645 5564
645 4826
645 4741
645 3340
645 3146
645 2536
645 2040
645 1119
645 785
645 325
645 320
645 199
644 9682
644 9275
644 7533
644 6717
644 6625
644 6019
644 5327
644 5065
644 5059
644 4932
644 4587
644 2966
644 2858
644 1727
644 1654
644 1230
644 307
644 153
644 110
643 9630
643 8637
643 7728
643 5800
643 5741
643 4988
643 4420
643 3714
643 2659
643 2491
643 2072
643 1913
643 543
643 300
643 275
642 8423
642 8285
642 7942
642 7190
642 6820
642 5126
642 4966
642 4637
642 2836
642 2367
642 2221
642 2199
642 1609
642 1583
642 682
642 658
642 99
642 77
642 54
641 8403
641 6819
641 4572
641 4153
641 3819
641 3774
641 2601
641 2514
641 2059
641 1990
641 1083
641 508
641 9
641 6
640 9545
640 8910
640 2233
640 949
640 159
640 151
640 0
639 8677
639 8092
639 6676
639 6660
639 4601
639 4296
639 3791
639 3590
639 2909
639 2617
639 1675
639 1642
639 285
639 38
639 2
638 9976
638 9927
638 9476
638 8018
638 7270
638 7256
638 7046
638 5374
638 4200
638 2914
638 2593
638 1623
638 1620
638 1568
638 810
638 778
638 426
638 307
638 93
637 9980
637 8870
637 3463
637 2458
637 2276
637 2012
637 1452
637 1188
637 1105
637 905
637 796
637 227
637 112
637 2
636 8640
636 7446
636 6594
636 4494
636 3517
636 3144
636 3032
636 2615
636 1406
636 1211
636 521
636 486
636 55
635 171
635 51
635 42
634 9318
634 8269
634 7237
634 7103
634 7098
634 6908
634 6764
634 6069
634 5630
634 4060
634 3631
634 3346
634 3245
634 3242
634 2448
634 1742
634 1576
634 1558
634 1531
634 785
634 120
634 30
634 12
633 9629
633 9275
633 8987
633 7486
633 6314
633 5325
633 5267
633 4128
633 3559
633 3357
633 1554
633 1456
633 1094
633 1017
633 1009
633 929
633 842
633 772
633 712
633 141
633 79
633 4
632 9699
632 9286
632 7239
632 5867
632 5391
632 3945
632 3154
632 2721
632 2671
632 2327
632 2230
632 1758
632 1097
632 528
632 509
632 156
631 6318
631 5028
631 4051
631 1390
631 417
631 246
631 46
630 9626
630 6509
630 5603
630 3943
630 3800
630 3283
630 255
630 23
630 15
629 8884
629 7729
629 6667
629 5024
629 2490
629 2401
629 926
629 180
629 170
629 92
628 8748
628 5462
628 2034
628 740
628 95
628 84
628 10
627 8266
627 8096
627 7590
627 5504
627 4505
627 3982
627 3722
627 3508
627 3029
627 2114
627 938
627 727
627 290
627 23
627 0
626 9005
626 8844
626 8798
626 7531
626 7406
626 6785
626 5889
626 5607
626 5104
626 4624
626 3804
626 2500
626 2398
626 1233
626 1003
626 980
626 975
626 733
626 470
626 309
626 102
625 9485
625 8014
625 3857
625 1115
625 516
625 482
625 336
624 6919
624 3869
624 3689
624 2732
624 2549
624 1783
624 934
624 610
624 459
624 63
623 8474
623 3203
623 1472
623 725
623 166
623 88
623 43
622 5701
622 3775
622 3014
622 2667
622 1527
622 773
622 464
622 88
622 46
621 8826
621 8738
621 8694
621 8107
621 7184
621 5673
621 4516
621 4013
621 3994
621 3487
621 2785
621 2346
621 2156
621 1623
621 1466
621 912
621 547
621 414
621 120
620 9204
620 8032
620 5614
620 37
620 23
620 3
619 5052
619 4790
619 4344
619 4150
619 3518
619 3470
619 2821
619 1918
619 1407
619 1206
619 1166
619 1144
619 568
619 390
619 31
618 8690
618 342
618 113
618 90
617 3319
617 2030
617 71
617 63
617 28
616 9498
616 8935
616 8782
616 8285
616 8106
616 7903
616 7475
616 5320
616 4874
616 4288
616 3912
616 3398
616 3394
616 3068
616 2195
616 2123
616 1127
616 921
616 9
616 2
616 0
615 9551
615 9121
615 5022
615 4302
615 2284
615 2101
615 1962
615 666
615 523
615 303
615 47
614 7542
614 7514
614 5109
614 2168
614 532
614 36
614 0
613 9982
613 8268
613 7001
613 6705
613 6570
613 6386
613 5611
613 5546
613 5230
613 4474
613 3562
613 3455
613 3023
613 2610
613 2294
613 1825
613 1806
613 1741
613 1061
613 705
613 678
613 156
613 111
613 42
612 8923
612 7587
612 7132
612 6388
612 5766
612 5159
612 5092
612 4095
612 3310
612 3173
612 2471
612 2436
612 1775
612 1736
612 1679
612 1503
612 1384
612 1031
612 958
612 415
612 110
612 0
611 7893
611 6291
611 6129
611 5679
611 5655
611 3488
611 3305
611 3244
611 2596
611 1563
611 1508
611 1339
611 1198
611 1108
611 838
611 307
611 299
611 123
610 6571
610 3985
610 624
610 276
610 126
610 26
609 9844
609 3555
609 2121
609 1693
609 1639
609 1257
609 577
609 47
609 45
608 9942
608 9625
608 9316
608 9174
608 8649
608 7266
608 7071
608 6961
608 6789
608 6301
608 5571
608 5381
608 4611
608 3901
608 3437
608 3298
608 2994
608 2960
608 2628
608 2034
608 2030
608 1440
608 699
608 410
608 399
608 37
607 9339
607 6956
607 6322
607 5243
607 3778
607 2405
607 2264
607 1925
607 1905
607 1298
607 83
607 10
607 7
606 9030
606 8258
606 6578
606 3964
606 3857
606 2640
606 1955
606 1901
606 1590
606 474
606 52
606 28
605 6082
605 5794
605 4260
605 2724
605 1411
605 832
605 714
605 554
605 397
605 4
604 9000
604 7354
604 7189
604 6902
604 5635
604 4407
604 3947
604 2346
604 1971
604 1333
604 91
604 48
604 26
603 9103
603 8971
603 8015
603 7623
603 7386
603 4837
603 4577
603 3925
603 3840
603 3173
603 2491
603 1657
603 1367
603 1124
603 856
603 262
603 104
603 49
602 8663
602 8108
602 6860
602 5273
602 3240
602 1614
602 460
602 422
602 3
601 7430
601 6100
601 3478
601 3327
601 2612
601 1675
601 953
601 572
601 532
601 178
600 9430
600 8652
600 8165
600 7807
600 5989
600 5930
600 5785
600 5209
600 5203
600 4807
600 3974
600 3157
600 2657
600 2350
600 1748
600 1621
600 1351
600 1267
600 1132
600 381
600 376
600 4
599 9444
599 9426
599 9387
599 9282
599 9241
599 8288
599 7720
599 7554
599 7050
599 6578
599 6411
599 6352
599 5923
599 5755
599 3240
599 3201
599 2745
599 2554
599 2488
599 1763
599 1544
599 1487
599 846
599 834
599 492
599 53
599 5
598 7318
598 6264
598 4084
598 3944
598 2382
598 1612
598 92
598 61
598 52
597 9920
597 8190
597 6869
597 4758
597 4513
597 3864
597 3524
597 2649
597 2548
597 1194
597 1063
597 166
597 36
597 7
596 4055
596 3623
596 2786
596 2403
596 1169
596 721
596 473
596 448
596 55
595 8890
595 8319
595 2725
595 1311
595 1081
595 669
595 108
595 19
595 7
594 5247
594 3898
594 3013
594 2998
594 2236
594 1043
594 236
594 35
594 14
593 8666
593 6861
593 6654
593 5851
593 4897
593 1396
593 279
593 260
593 113
592 8656
592 7305
592 7263
592 6657
592 4033
592 3057
592 2878
592 1815
592 1210
592 745
592 86
592 69
592 9
591 9133
591 8976
591 8931
591 6727
591 6596
591 5653
591 5575
591 4068
591 3250
591 3117
591 3064
591 2810
591 2513
591 1380
591 1216
591 1154
591 1044
591 681
591 178
591 125
591 112
590 9043
590 8518
590 6092
590 375
590 265
590 11
589 9361
589 7537
589 5090
589 4809
589 2979
589 2102
589 2090
589 1967
589 1592
589 1129
589 1021
589 509
589 27
589 0
588 8359
588 8178
588 4474
588 4227
588 2936
588 1393
588 1198
588 964
588 963
588 654
588 156
588 77
588 7
587 4895
587 4745
587 4099
587 3166
587 414
587 386
587 0
586 9989
586 6391
586 1930
586 416
586 142
586 130
585 8572
585 7989
585 7197
585 4836
585 4114
585 3332
585 2774
585 2370
585 2000
585 43
585 7
585 5
584 9719
584 9615
584 7932
584 7792
584 7466
584 7055
584 6345
584 5242
584 4064
584 2703
584 2121
584 1617
584 1255
584 1165
584 675
584 199
584 197
584 2
583 9741
583 9423
583 8885
583 8525
583 7933
583 7911
583 7250
583 6993
583 6813
583 6790
583 6389
583 6371
583 6237
583 6093
583 5728
583 5167
583 4771
583 4752
583 4707
583 4224
583 4104
583 4074
583 3962
583 3445
583 2962
583 2382
583 2186
583 1356
583 1242
583 1189
583 932
583 700
583 459
583 356
583 50
582 9976
582 8516
582 8236
582 7437
582 5004
582 2639
582 496
582 485
582 474
581 8858
581 4176
581 2218
581 1963
581 1937
581 1669
581 508
581 200
581 11
580 9719
580 2356
580 1129
580 440
580 30
580 4
579 9667
579 8605
579 8311
579 2330
579 2288
579 2253
579 573
579 126
579 84
578 9542
578 8323
578 8285
578 8089
578 7688
578 5840
578 5737
578 5323
578 4686
578 4236
578 4185
578 3938
578 3860
578 3348
578 2647
578 1218
578 324
578 177
578 137
577 9695
577 9038
577 7064
577 6651
577 6609
577 5831
577 4980
577 4237
577 3884
577 3758
577 3497
577 3210
577 3125
577 3034
577 2651
577 2528
577 2274
577 2017
577 1721
577 1211
577 773
577 713
577 609
577 454
577 249
577 23
576 9579
576 6184
576 4194
576 3637
576 2687
576 1832
576 1577
576 324
576 181
576 178
575 8348
575 8190
575 5837
575 5126
575 2422
575 1370
575 503
575 6
575 4
574 3206
574 225
574 197
574 15
573 9290
573 6792
573 5782
573 2014
573 1659
573 579
573 514
573 65
573 6
572 9196
572 8998
572 8655
572 7037
572 6580
572 6257
572 6078
572 5183
572 4991
572 4702
572 4665
572 3639
572 3014
572 2146
572 1915
572 1222
572 860
572 722
572 601
572 549
572 84
572 23
571 9479
571 7179
571 5228
571 2380
571 474
571 132
571 27
570 3330
570 547
570 52
570 0
569 8412
569 1986
569 1769
569 1390
569 334
569 321
569 110
568 9823
568 8424
568 7223
568 5596
568 4876
568 2896
568 2483
568 1538
568 619
568 110
568 43
568 38
567 3806
567 3661
567 3115
567 2110
567 1370
567 1228
567 244
567 80
567 23
566 8242
566 8038
566 6269
566 5235
566 5015
566 3108
566 2362
566 2170
566 2035
566 1445
566 839
566 342
566 63
566 12
565 8023
565 6328
565 6179
565 5506
565 5444
565 5378
565 4427
565 3084
565 2856
565 2598
565 1335
565 1046
565 1016
565 872
565 739
565 402
565 3
565 0
564 7010
564 4198
564 3934
564 3072
564 2515
564 2495
564 1609
564 1142
564 1032
564 376
564 193
564 5
563 4873
563 1647
563 1260
563 355
563 203
563 72
562 6140
562 458
562 324
562 19
561 485
561 193
561 178
560 9318
560 9267
560 8469
560 8288
560 6425
560 6344
560 5870
560 4549
560 4110
560 3951
560 1622
560 1252
560 1144
560 1066
560 956
560 751
560 703
560 676
560 389
560 239
560 4
559 8985
559 8484
559 6206
559 6032
559 4550
559 3847
559 3605
559 3551
559 2943
559 1538
559 808
559 502
559 441
559 89
558 7915
558 7820
558 6507
558 3627
558 3317
558 3251
558 2776
558 2588
558 2325
558 1853
558 1809
558 1473
558 816
558 701
558 550
558 88
558 2
557 5416
557 5004
557 2318
557 1838
557 1443
557 965
557 340
557 33
557 18
556 8454
556 8017
556 6554
556 6426
556 5886
556 5878
556 2149
556 2009
556 1992
556 1147
556 992
556 926
556 752
556 677
556 381
556 60
556 42
555 5953
555 5073
555 1814
555 1674
555 1219
555 35
555 10
555 0
554 8260
554 4075
554 2742
554 2094
554 1190
554 657
554 605
554 153
554 28
554 10
553 9841
553 7799
553 6956
553 2992
553 1431
553 335
553 162
553 141
552 9650
552 9624
552 9126
552 9057
552 8819
552 7880
552 5051
552 416
552 345
552 187
551 9932
551 6389
551 5540
551 5530
551 4288
551 4145
551 4012
551 3141
551 3025
551 2947
551 2800
551 2769
551 2657
551 2247
551 1610
551 1527
551 1414
551 989
551 680
551 395
551 301
551 239
550 9780
550 7482
550 6799
550 6159
550 4933
550 4189
550 3849
550 2854
550 2743
550 2008
550 1805
550 1164
550 712
550 558
550 50
550 43
550 9
549 7874
549 6780
549 6358
549 2732
549 1604
549 869
549 572
549 462
549 263
549 182
548 9799
548 7959
548 7711
548 4046
548 2586
548 1343
548 402
548 33
548 7
547 7840
547 5654
547 4096
547 621
547 570
547 238
547 174
547 30
546 1499
546 137
546 49
546 36
545 9766
545 9663
545 9267
545 8820
545 6382
545 5498
545 2531
545 2238
545 2236
545 2074
545 883
545 696
545 304
545 187
545 138
544 9107
544 8459
544 4970
544 3900
544 3877
544 3633
544 1386
544 1384
544 1252
544 437
544 256
544 26
543 9055
543 7406
543 6809
543 6645
543 3873
543 2753
543 2727
543 2148
543 1438
543 643
543 356
543 210
543 0
542 8736
542 7126
542 6950
542 6454
542 5915
542 5312
542 4377
542 3653
542 2997
542 2503
542 2414
542 2372
542 2371
542 2099
542 1783
542 1700
542 1638
542 1109
542 871
542 647
542 193
542 178
542 72
541 9314
541 5193
541 2960
541 657
541 340
541 337
541 91
540 6890
540 6815
540 5886
540 5064
540 4909
540 4164
540 3953
540 2022
540 1919
540 1773
540 1285
540 910
540 823
540 670
540 503
540 337
540 120
539 8760
539 7216
539 6069
539 5923
539 3983
539 3105
539 1672
539 1110
539 536
539 37
539 31
538 9243
538 9199
538 7009
538 5007
538 4508
538 4221
538 3655
538 3010
538 1497
538 885
538 169
538 146
538 30
537 9835
537 8126
537 7729
537 7098
537 6495
537 6321
537 5738
537 4711
537 4567
537 4084
537 1529
537 1478
537 1024
537 953
537 219
537 174
537 16
536 9974
536 9569
536 6376
536 3054
536 539
536 355
536 298
536 50
535 9481
535 8244
535 7328
535 6105
535 5442
535 4389
535 4160
535 2487
535 2457
535 2337
535 1908
535 1082
535 851
535 24
535 12
535 0
534 9787
534 9194
534 7761
534 7653
534 5587
534 5405
534 5105
534 4719
534 4653
534 3256
534 3027
534 2572
534 2459
534 1860
534 1786
534 1599
534 1350
534 1141
534 305
534 294
534 177
533 9196
533 4339
533 3722
533 991
533 526
533 424
533 7
532 9592
532 9533
532 8811
532 8098
532 6726
532 6382
532 6253
532 6041
532 3567
532 2997
532 2301
532 1095
532 830
532 806
532 614
532 601
532 296
532 154
532 109
531 9869
531 8593
531 8114
531 7065
531 6514
531 5550
531 5517
531 2871
531 1280
531 141
531 48
531 2
530 9028
530 7780
530 6669
530 4554
530 3636
530 1586
530 1212
530 1177
530 113
530 46
530 8
529 8381
529 6056
529 5812
529 5404
529 4951
529 4310
529 2771
529 2493
529 1715
529 1558
529 822
529 300
529 147
529 76
528 9700
528 7179
528 1559
528 1449
528 1404
528 839
528 632
528 320
528 227
528 5
527 9803
527 9373
527 9151
527 9120
527 8677
527 8298
527 6961
527 5055
527 4265
527 3641
527 3015
527 2644
527 1794
527 1434
527 1093
527 780
527 478
527 260
527 9
526 8827
526 8700
526 8214
526 7797
526 7346
526 7126
526 6670
526 5229
526 2317
526 533
526 335
526 5
526 0
525 7904
525 6636
525 3221
525 2048
525 454
525 26
525 12
524 8989
524 6957
524 4740
524 4485
524 1699
524 37
524 3
524 1
523 6301
523 3389
523 3294
523 2804
523 1441
523 1014
523 716
523 615
523 223
523 171
523 29
522 8879
522 8439
522 6742
522 4804
522 3581
522 3070
522 2377
522 1232
522 1131
522 1049
522 679
522 255
522 211
522 14
521 6497
521 6302
521 4815
521 2760
521 2619
521 1663
521 636
521 499
521 294
521 23
520 9602
520 8325
520 8085
520 7597
520 7551
520 6711
520 5718
520 5232
520 5222
520 4983
520 4642
520 4571
520 3169
520 2913
520 2189
520 1788
520 1389
520 883
520 659
520 444
520 396
520 130
519 9659
519 5778
519 265
519 205
519 60
518 9976
518 9095
518 8567
518 8075
518 7715
518 7029
518 6955
518 6834
518 6787
518 5783
518 5492
518 5093
518 4882
518 3529
518 3187
518 3185
518 3058
518 2797
518 2785
518 2748
518 2178
518 2103
518 1729
518 1193
518 1142
518 356
518 114
518 52
517 9389
517 4215
517 2713
517 984
517 782
517 423
517 119
517 45
516 7771
516 2157
516 625
516 203
516 197
516 106
515 2451
515 457
515 157
515 143
514 8299
514 7079
514 6593
514 5443
514 4646
514 4353
514 4312
514 3911
514 3609
514 3413
514 2279
514 2126
514 1203
514 935
514 777
514 573
514 147
514 6
514 4
513 9611
513 8634
513 7494
513 5901
513 5717
513 5457
513 5009
513 4217
513 4037
513 3878
513 3475
513 3174
513 2840
513 2550
513 2457
513 2374
513 2177
513 1889
513 1602
513 295
513 79
513 14
512 7970
512 7210
512 4802
512 4567
512 4235
512 4019
512 3281
512 3217
512 2999
512 2313
512 2226
512 2031
512 1259
512 747
512 75
512 46
512 1
511 9876
511 7333
511 7283
511 6937
511 6282
511 5839
511 5483
511 3157
511 2336
511 1120
511 419
511 398
511 26
510 8449
510 8006
510 6654
510 6273
510 6043
510 5792
510 4868
510 4727
510 4596
510 2825
510 2608
510 1843
510 1543
510 1405
510 856
510 835
510 655
510 395
510 41
510 18
509 9435
509 7983
509 6740
509 5113
509 4645
509 3905
509 3607
509 2559
509 2057
509 1607
509 632
509 589
509 95
509 79
509 77
508 8168
508 7965
508 7712
508 6459
508 4868
508 4732
508 3533
508 3513
508 3181
508 2920
508 2260
508 1596
508 1306
508 933
508 915
508 746
508 641
508 581
508 58
508 55
508 48
507 9650
507 9602
507 9453
507 8936
507 2933
507 2778
507 1578
507 338
507 140
507 58
506 9661
506 8896
506 8419
506 7647
506 7171
506 7121
506 6015
506 5745
506 5407
506 4403
506 4246
506 4141
506 2242
506 1675
506 1201
506 1020
506 790
506 500
506 26
506 19
505 5040
505 3167
505 1442
505 1146
505 337
505 203
505 140
504 1926
504 1854
504 1010
504 310
504 197
504 188
503 9711
503 9233
503 8503
503 8216
503 7644
503 6514
503 5755
503 4637
503 4362
503 3897
503 3723
503 2729
503 1839
503 1085
503 933
503 879
503 868
503 575
503 540
503 444
503 259
503 151
502 9581
502 8640
502 8596
502 8317
502 8229
502 7524
502 7382
502 7280
502 7251
502 6498
502 5628
502 5540
502 5254
502 5170
502 4921
502 4515
502 3422
502 3261
502 3080
502 2570
502 2460
502 1646
502 1552
502 1540
502 1402
502 1372
502 1315
502 1279
502 929
502 763
502 648
502 559
502 265
502 12
502 11
501 6849
501 3534
501 3506
501 2000
501 1871
501 1671
501 1201
501 857
501 393
501 108
501 3
500 9738
500 9200
500 8755
500 8613
500 8333
500 7294
500 4874
500 3989
500 2807
500 2777
500 506
500 470
500 130
500 0
499 9960
499 9385
499 9148
499 7543
499 6390
499 5513
499 5413
499 5346
499 4454
499 3070
499 2492
499 2060
499 1758
499 1339
499 1072
499 521
499 351
499 10
499 4
498 6208
498 5754
498 4002
498 1887
498 276
498 245
498 16
497 9167
497 8317
497 7912
497 7430
497 5024
497 4284
497 1958
497 1332
497 288
497 113
497 5
496 8669
496 7914
496 7558
496 6879
496 5725
496 5436
496 4682
496 2460
496 2345
496 2187
496 1914
496 1722
496 1553
496 582
496 403
496 113
496 107
495 7277
495 6320
495 6162
495 5675
495 3472
495 1627
495 1624
495 942
495 691
495 353
495 5
495 0
494 8637
494 4385
494 3104
494 1205
494 293
494 188
494 9
493 9751
493 7875
493 7829
493 5862
493 5788
493 5604
493 5555
493 4371
493 3700
493 2756
493 2309
493 2286
493 2240
493 651
493 388
493 181
493 141
492 7459
492 6210
492 2984
492 1731
492 1411
492 1054
492 749
492 730
492 599
492 354
492 200
492 98
491 4500
491 4016
491 3863
491 2461
491 1053
491 471
491 292
491 197
490 9548
490 8898
490 8618
490 8477
490 6156
490 5977
490 5904
490 5827
490 3964
490 2876
490 2392
490 1041
490 352
490 169
490 161
489 9612
489 8672
489 5990
489 2826
489 2574
489 2033
489 2024
489 1788
489 110
489 100
489 23
488 9826
488 9372
488 9159
488 9080
488 7691
488 2773
488 2719
488 2462
488 1304
488 1238
488 1135
488 292
488 184
488 174
487 8342
487 7368
487 5308
487 3514
487 3298
487 288
487 215
487 206
486 8100
486 7780
486 7125
486 6269
486 6127
486 5836
486 4757
486 3887
486 2340
486 1904
486 1748
486 1462
486 1378
486 1345
486 970
486 825
486 636
486 284
486 203
486 16
485 7599
485 7529
485 6542
485 5114
485 4561
485 4374
485 3842
485 3598
485 2317
485 983
485 743
485 582
485 561
485 228
485 100
485 12
484 5422
484 4413
484 2414
484 2016
484 710
484 367
484 5
484 2
483 5718
483 2851
483 1450
483 482
483 395
483 94
482 9954
482 7365
482 7089
482 5962
482 5739
482 5606
482 5201
482 5119
482 4730
482 3857
482 3819
482 3172
482 1319
482 668
482 625
482 483
482 335
482 181
482 24
481 9998
481 9157
481 7125
481 5025
481 4575
481 4182
481 3254
481 2810
481 1153
481 1044
481 903
481 43
481 27
481 11
480 9524
480 8452
480 7791
480 7742
480 2187
480 1825
480 1469
480 1443
480 1427
480 873
480 841
480 763
480 174
480 112
480 63
479 9980
479 7627
479 6027
479 5882
479 4920
479 4392
479 4224
479 931
479 452
479 51
479 13
478 9417
478 8783
478 8657
478 8544
478 6673
478 6618
478 6330
478 5233
478 3255
478 3246
478 3221
478 3028
478 2506
478 2477
478 2183
478 2178
478 1944
478 1669
478 1519
478 1449
478 923
478 722
478 527
478 294
478 151
478 32
477 4000
477 1249
477 706
477 332
477 181
477 123
476 9786
476 9323
476 6496
476 4823
476 3292
476 3158
476 739
476 216
476 184
476 7
475 8654
475 7809
475 4299
475 1481
475 786
475 412
475 262
475 4
474 9144
474 8631
474 8043
474 7925
474 7561
474 7489
474 7236
474 4323
474 4318
474 3540
474 3363
474 2971
474 2651
474 2585
474 2421
474 2388
474 2240
474 2231
474 2139
474 1843
474 1808
474 1307
474 1272
474 1214
474 1091
474 947
474 872
474 606
474 582
474 571
474 142
474 107
474 20
473 9645
473 9464
473 8913
473 6972
473 6258
473 5218
473 3763
473 3477
473 2654
473 1916
473 1346
473 596
473 313
473 225
473 5
472 9479
472 8679
472 7317
472 7003
472 5859
472 5158
472 4777
472 4438
472 4197
472 4144
472 3083
472 2765
472 874
472 688
472 315
472 230
472 222
471 7530
471 7358
471 5921
471 5865
471 5053
471 3410
471 1467
471 1298
471 951
471 856
471 491
471 79
471 36
471 10
470 8970
470 8950
470 7499
470 7272
470 6533
470 4967
470 3673
470 3591
470 3307
470 3160
470 2429
470 2054
470 1987
470 1956
470 1681
470 1530
470 1338
470 626
470 500
470 97
470 91
470 2
469 8582
469 6151
469 4350
469 3918
469 3496
469 2580
469 72
469 9
469 7
468 6576
468 6295
468 4956
468 1087
468 803
468 650
468 256
468 55
468 26
467 9270
467 7215
467 6921
467 5918
467 5331
467 4434
467 3617
467 2676
467 2074
467 326
467 34
467 4
466 9306
466 9114
466 7806
466 3593
466 3162
466 360
466 197
466 149
465 5365
465 2548
465 2431
465 280
465 231
465 117
464 9340
464 8564
464 6747
464 5534
464 5055
464 4080
464 3350
464 2229
464 2131
464 1334
464 1220
464 1058
464 622
464 456
464 304
464 275
463 6460
463 3353
463 1322
463 865
463 432
463 295
463 153
462 8816
462 8017
462 7977
462 6947
462 5852
462 5408
462 3485
462 2682
462 2664
462 2404
462 1479
462 1475
462 1417
462 1154
462 549
462 433
462 23
462 10
461 9694
461 9238
461 7609
461 7275
461 7008
461 6533
461 5041
461 4430
461 3937
461 3235
461 3079
461 2769
461 2633
461 2058
461 1977
461 1380
461 1293
461 1173
461 1066
461 297
461 99
461 4
460 6992
460 6574
460 5929
460 5646
460 5293
460 3565
460 2531
460 602
460 384
460 200
460 89
459 9782
459 9084
459 8413
459 8378
459 7908
459 7730
459 6281
459 6072
459 3536
459 3489
459 1519
459 1498
459 1131
459 624
459 583
459 110
459 100
459 26
458 9990
458 9682
458 9232
458 8915
458 8601
458 8460
458 8139
458 7080
458 6817
458 4321
458 4007
458 3462
458 3349
458 3196
458 3175
458 2591
458 2217
458 2011
458 1071
458 790
458 562
458 442
458 436
458 387
457 9989
457 9515
457 8398
457 7335
457 6475
457 6191
457 5863
457 3753
457 3374
457 2944
457 2572
457 2431
457 1750
457 1716
457 1292
457 1262
457 515
457 288
457 247
457 13
456 8599
456 7684
456 7574
456 6871
456 6500
456 6387
456 6350
456 6002
456 5942
456 5628
456 4443
456 3986
456 2916
456 2833
456 2778
456 2423
456 1551
456 1537
456 1530
456 1482
456 1221
456 1011
456 914
456 464
456 320
456 13
456 5
455 9927
455 7269
455 7076
455 6835
455 5611
455 5574
455 5116
455 2246
455 1853
455 1185
455 768
455 239
455 108
455 42
454 9415
454 9066
454 8141
454 7777
454 7300
454 6863
454 6422
454 6044
454 6032
454 5753
454 4436
454 4217
454 4130
454 3553
454 3184
454 2667
454 1749
454 1300
454 1163
454 577
454 525
454 420
454 390
454 204
453 8697
453 7710
453 5390
453 131
453 33
453 3
452 6950
452 3347
452 1996
452 1490
452 1251
452 479
452 228
452 212
452 117
451 9199
451 5707
451 2468
451 1811
451 410
451 264
451 92
450 6842
450 5859
450 2205
450 274
450 205
450 2
449 9163
449 8868
449 8117
449 7968
449 6015
449 5422
449 4234
449 3099
449 2384
449 2285
449 2136
449 2053
449 1649
449 1243
449 985
449 775
449 69
449 34
449 7
448 8725
448 6966
448 6310
448 5824
448 5465
448 4299
448 1430
448 1152
448 596
448 320
448 228
448 5
447 9902
447 7602
447 7575
447 4893
447 4309
447 3588
447 3571
447 3163
447 986
447 60
447 3
447 2
446 7754
446 6660
446 4788
446 4595
446 4494
446 4443
446 801
446 300
446 54
446 7
445 7511
445 6750
445 5916
445 5306
445 5113
445 4493
445 4276
445 2877
445 1658
445 1381
445 1077
445 328
445 231
445 176
444 9944
444 8950
444 8566
444 8313
444 7380
444 7351
444 5975
444 4836
444 4776
444 4099
444 4057
444 4051
444 3745
444 3722
444 3057
444 2766
444 2756
444 2399
444 1892
444 1882
444 1842
444 520
444 503
444 391
444 225
444 135
443 9156
443 5971
443 2866
443 2324
443 1149
443 156
443 125
443 6
442 9903
442 8497
442 6474
442 4825
442 3419
442 3233
442 3082
442 2692
442 1830
442 1524
442 1409
442 1227
442 1084
442 711
442 458
442 244
442 77
442 41
441 7916
441 6177
441 4463
441 3116
441 1841
441 1570
441 919
441 559
441 166
441 25
441 7
440 7476
440 7082
440 1737
440 1457
440 580
440 221
440 61
440 2
439 8483
439 6191
439 5916
439 5860
439 5658
439 5648
439 5123
439 1697
439 1258
439 1124
439 262
439 184
439 100
438 8671
438 7332
438 7156
438 6788
438 3669
438 3091
438 3069
438 1633
438 1563
438 1461
438 326
438 197
438 9
437 8669
437 8600
437 6885
437 5711
437 5431
437 3005
437 913
437 544
437 389
437 262
437 48
436 7865
436 7521
436 6928
436 6495
436 6356
436 5564
436 2383
436 2359
436 2166
436 2122
436 1080
436 725
436 718
436 458
436 260
436 110
436 18
435 9686
435 4372
435 2053
435 658
435 387
435 131
435 5
434 7664
434 6984
434 6914
434 6683
434 6672
434 5255
434 5140
434 4270
434 4093
434 3074
434 2993
434 1969
434 1354
434 1155
434 973
434 962
434 799
434 404
434 301
434 5
433 9714
433 9048
433 6051
433 5423
433 897
433 462
433 292
433 176
433 164
432 7284
432 3455
432 1416
432 463
432 277
432 100
432 2
431 5270
431 2870
431 937
431 858
431 383
431 158
431 120
430 9328
430 8993
430 8554
430 8139
430 7624
430 6905
430 6685
430 6566
430 5496
430 5289
430 5047
430 4563
430 3988
430 3262
430 2695
430 2509
430 1685
430 1149
430 1055
430 940
430 419
430 304
430 160
429 8832
429 6840
429 6666
429 3879
429 3755
429 3675
429 2982
429 2434
429 2163
429 1739
429 1459
429 1120
429 425
429 284
429 72
428 8341
428 5850
428 4013
428 2206
428 304
428 174
428 135
427 8350
427 7452
427 7165
427 5661
427 2394
427 1403
427 1141
427 771
427 69
427 58
427 31
426 9727
426 6567
426 6522
426 6483
426 6302
426 5320
426 4787
426 4313
426 3728
426 3408
426 3376
426 1163
426 1040
426 638
426 158
426 147
426 84
425 8301
425 429
425 252
425 111
425 26
424 9886
424 6976
424 4819
424 2534
424 2054
424 2021
424 1883
424 1749
424 1620
424 1582
424 1078
424 533
424 328
424 39
424 7
423 8699
423 7758
423 517
423 260
423 39
423 2
422 8765
422 7974
422 4826
422 4580
422 4403
422 4326
422 4203
422 4190
422 3754
422 2872
422 1873
422 1800
422 1602
422 602
422 256
422 188
422 3
421 9013
421 7315
421 6451
421 6184
421 5600
421 5284
421 4379
421 3678
421 3627
421 2177
421 2045
421 1031
421 225
421 55
421 32
420 9816
420 9398
420 8261
420 7168
420 6542
420 5799
420 5619
420 4896
420 2755
420 1682
420 1434
420 1090
420 766
420 740
420 454
420 395
420 297
420 8
419 7762
419 7516
419 6912
419 5924
419 5841
419 5287
419 2426
419 2400
419 2371
419 2218
419 2133
419 1204
419 1182
419 907
419 511
419 430
419 227
419 165
419 142
418 8773
418 5526
418 5309
418 286
418 33
418 28
417 9604
417 9356
417 8148
417 7445
417 6569
417 6332
417 5107
417 4824
417 4497
417 3549
417 3476
417 3247
417 2628
417 1866
417 977
417 631
417 130
417 108
417 14
416 9898
416 9842
416 9649
416 8907
416 8650
416 8408
416 8248
416 8213
416 7717
416 7493
416 7185
416 6979
416 6913
416 6857
416 6540
416 6534
416 6124
416 5525
416 5499
416 5483
416 5437
416 5097
416 4756
416 4739
416 4467
416 4424
416 3820
416 3384
416 3312
416 3283
416 3197
416 2756
416 2750
416 2722
416 2644
416 2435
416 2336
416 2292
416 2222
416 2130
416 1907
416 918
416 876
416 761
416 734
416 586
416 552
416 210
416 176
416 142
415 9422
415 9044
415 8511
415 8320
415 7972
415 6562
415 6126
415 5708
415 5041
415 4798
415 3973
415 3698
415 3285
415 875
415 849
415 836
415 612
415 293
415 147
415 26
414 9975
414 8915
414 6869
414 5669
414 5490
414 5063
414 2881
414 2305
414 1836
414 1758
414 1144
414 621
414 587
414 154
414 12
414 7
413 9567
413 8619
413 8489
413 8283
413 6702
413 6203
413 4975
413 3901
413 3507
413 3105
413 2978
413 2161
413 1581
413 1195
413 393
413 108
413 6
412 9037
412 7649
412 6327
412 5428
412 4299
412 3554
412 2709
412 671
412 475
412 411
412 305
412 201
411 9202
411 8471
411 4094
411 3083
411 2963
411 2880
411 2283
411 1568
411 1111
411 683
411 412
411 322
411 3
411 0
410 9728
410 9250
410 9204
410 8551
410 6441
410 6190
410 6060
410 5598
410 3958
410 2047
410 1895
410 950
410 932
410 806
410 778
410 689
410 608
410 451
410 384
410 63
410 30
409 4443
409 653
409 158
409 33
409 10
408 8845
408 7087
408 4464
408 4430
408 3042
408 2850
408 355
408 47
408 9
407 9416
407 8610
407 5541
407 4587
407 3729
407 1883
407 1431
407 306
407 179
407 78
406 9036
406 8418
406 7804
406 6782
406 6450
406 5964
406 5735
406 4709
406 1305
406 72
406 31
406 23
405 6755
405 6721
405 5396
405 4540
405 3448
405 2819
405 1464
405 1151
405 389
405 380
405 4
404 9229
404 8454
404 6461
404 5242
404 5110
404 2922
404 2271
404 434
404 333
404 204
404 1
403 9673
403 9063
403 8879
403 8864
403 3872
403 3372
403 2246
403 701
403 496
403 339
403 104
403 37
402 9896
402 7095
402 6718
402 5421
402 5280
402 4717
402 4630
402 4187
402 4044
402 3726
402 3532
402 3037
402 2288
402 974
402 565
402 548
402 300
402 61
402 29
401 9478
401 4908
401 4713
401 4123
401 1439
401 1323
401 863
401 289
401 113
401 0
400 9811
400 8001
400 7013
400 6740
400 6612
400 6313
400 5022
400 3416
400 2963
400 2868
400 2820
400 818
400 742
400 648
400 260
400 204
400 126
399 9405
399 8631
399 6919
399 2827
399 1126
399 608
399 168
399 151
399 23
398 7176
398 5443
398 3639
398 698
398 511
398 189
398 150
398 89
397 5334
397 4722
397 4025
397 649
397 605
397 147
397 72
397 19
396 9597
396 6826
396 6104
396 3699
396 3560
396 3474
396 2376
396 1379
396 1093
396 520
396 380
396 25
396 7
395 9584
395 8241
395 7750
395 7045
395 6216
395 4325
395 3952
395 3622
395 2788
395 2282
395 1911
395 1365
395 1354
395 1275
395 1180
395 777
395 551
395 510
395 483
395 420
395 245
395 38
395 11
394 9517
394 4290
394 1816
394 1068
394 240
394 76
394 53
393 9317
393 9116
393 9004
393 8706
393 8006
393 7965
393 7381
393 7082
393 6762
393 6706
393 6579
393 6375
393 5874
393 5112
393 4903
393 4329
393 3123
393 2754
393 2332
393 1881
393 1780
393 1742
393 1000
393 990
393 974
393 950
393 765
393 501
393 413
393 207
393 123
393 7
392 9749
392 7075
392 6971
392 6383
392 5813
392 5748
392 4835
392 4160
392 3457
392 3192
392 1812
392 1805
392 1728
392 1680
392 981
392 785
392 749
392 119
392 63
392 18
391 9858
391 9225
391 8499
391 7703
391 7450
391 6979
391 6735
391 6589
391 5756
391 5026
391 4553
391 4384
391 4293
391 3515
391 3263
391 2739
391 1719
391 1407
391 1198
391 1164
391 1058
391 820
391 811
391 654
391 444
391 286
391 49
391 11
390 9746
390 7318
390 5936
390 5200
390 4937
390 4466
390 3858
390 3168
390 2495
390 1677
390 718
390 619
390 454
390 362
390 61
390 15
389 9480
389 8660
389 8353
389 7673
389 7048
389 7041
389 6432
389 5089
389 5071
389 2724
389 2374
389 2326
389 2028
389 1538
389 1324
389 1283
389 844
389 788
389 774
389 560
389 437
389 405
389 320
389 48
389 38
388 9385
388 8850
388 8108
388 7113
388 7075
388 6754
388 4561
388 3268
388 2599
388 1867
388 1812
388 1535
388 1450
388 845
388 493
388 281
388 207
388 76
387 9751
387 9662
387 9505
387 9229
387 8428
387 8386
387 7263
387 7020
387 6555
387 5531
387 5461
387 5307
387 4356
387 4176
387 4168
387 3946
387 3572
387 3538
387 2847
387 2714
387 2600
387 2257
387 1990
387 1693
387 1546
387 1112
387 1037
387 980
387 892
387 882
387 861
387 674
387 673
387 665
387 458
387 435
387 345
387 21
387 3
386 9510
386 7580
386 7200
386 7127
386 6600
386 5467
386 5375
386 4761
386 3374
386 3136
386 2954
386 2864
386 2819
386 2733
386 2190
386 1592
386 1588
386 1441
386 1362
386 587
386 30
386 14
386 6
385 9477
385 8772
385 8061
385 6630
385 6432
385 5148
385 5011
385 2937
385 1200
385 1005
385 65
385 48
385 3
384 9698
384 9528
384 9138
384 6515
384 6291
384 4582
384 4473
384 4319
384 3352
384 2055
384 1485
384 1083
384 460
384 410
384 286
384 32
384 27
383 8927
383 8005
383 7393
383 6460
383 5680
383 3410
383 3168
383 2414
383 2120
383 431
383 349
383 147
383 45
382 8030
382 6944
382 6844
382 3847
382 3830
382 2261
382 1884
382 176
382 76
382 30
381 9929
381 9851
381 9553
381 7243
381 6613
381 4558
381 4469
381 4023
381 3395
381 3260
381 3141
381 3101
381 2502
381 1591
381 1505
381 1483
381 1310
381 1112
381 600
381 556
381 294
381 122
381 59
380 9895
380 9885
380 9146
380 9022
380 8507
380 7766
380 7489
380 7125
380 6675
380 5421
380 5280
380 5121
380 4986
380 4970
380 4554
380 4491
380 4097
380 3512
380 3491
380 3351
380 3131
380 2599
380 2258
380 2237
380 1700
380 1622
380 1544
380 986
380 930
380 893
380 405
380 396
380 150
380 125
380 8
379 8313
379 4629
379 3130
379 2564
379 1079
379 106
379 84
379 65
378 8341
378 7237
378 4866
378 1873
378 656
378 286
378 151
378 29
377 8644
377 7153
377 6525
377 5000
377 1830
377 1192
377 342
377 69
377 9
376 9657
376 9648
376 5305
376 5057
376 4312
376 3578
376 3188
376 2179
376 1907
376 600
376 564
376 69
376 44
376 5
375 9367
375 8919
375 8654
375 8247
375 6381
375 6137
375 5868
375 5610
375 5397
375 2781
375 2745
375 2635
375 2379
375 1792
375 1560
375 1550
375 1495
375 1183
375 936
375 774
375 590
375 125
375 55
375 28
374 6070
374 4885
374 948
374 754
374 273
374 231
374 78
373 947
373 72
373 43
373 29
372 6880
372 4689
372 4397
372 4286
372 2881
372 2061
372 1034
372 140
372 76
372 19
371 3456
371 2137
371 1113
371 326
371 292
371 41
370 9441
370 7407
370 5411
370 5188
370 4940
370 3213
370 2955
370 1951
370 1946
370 216
370 203
370 81
369 8860
369 7853
369 7057
369 5339
369 4233
369 3077
369 2890
369 2834
369 2811
369 2653
369 2112
369 2078
369 1948
369 1320
369 728
369 343
369 232
369 4
368 6262
368 5426
368 4224
368 1936
368 954
368 288
368 118
368 7
367 8839
367 8516
367 6667
367 3194
367 1526
367 1490
367 1410
367 1338
367 1068
367 940
367 690
367 684
367 484
367 34
367 14
367 2
366 8261
366 7983
366 7922
366 7660
366 7055
366 7041
366 6991
366 6867
366 6583
366 5806
366 5582
366 5144
366 4065
366 3062
366 2434
366 1468
366 1451
366 1013
366 874
366 356
366 342
366 264
365 9946
365 8698
365 7994
365 6438
365 5657
365 4143
365 2593
365 336
365 83
365 7
364 7658
364 6708
364 6267
364 4204
364 1331
364 1190
364 736
364 260
364 202
364 126
363 7928
363 6136
363 3875
363 2926
363 1831
363 1328
363 935
363 899
363 706
363 336
363 288
363 7
362 9962
362 8669
362 7096
362 6255
362 6039
362 4758
362 1976
362 1033
362 390
362 219
362 144
362 37
361 8727
361 1705
361 730
361 91
361 6
361 0
360 8438
360 5947
360 5855
360 5540
360 5382
360 5359
360 4418
360 3510
360 3214
360 2980
360 2424
360 1710
360 1364
360 466
360 206
360 170
360 20
359 5915
359 1981
359 294
359 77
359 14
358 5536
358 5417
358 4954
358 2997
358 1932
358 1368
358 739
358 170
358 72
358 3
357 9752
357 9518
357 8575
357 5652
357 5322
357 4579
357 3039
357 2891
357 2497
357 1075
357 967
357 142
357 53
357 0
356 9487
356 9223
356 8873
356 8851
356 8002
356 7836
356 7005
356 6928
356 6392
356 6289
356 4213
356 3999
356 3962
356 3166
356 3007
356 2825
356 2134
356 1874
356 1714
356 1688
356 1067
356 583
356 543
356 518
356 366
356 80
356 72
356 37
355 7871
355 6545
355 4084
355 2501
355 2256
355 1648
355 1585
355 1167
355 954
355 563
355 536
355 408
355 269
355 77
355 0
354 8091
354 6951
354 6243
354 6152
354 5014
354 3026
354 1125
354 492
354 247
354 28
354 1
353 8303
353 7552
353 6313
353 3861
353 3226
353 2855
353 2724
353 2496
353 2159
353 1845
353 1134
353 1051
353 495
353 216
353 144
353 46
352 9878
352 9215
352 7513
352 2203
352 2060
352 1978
352 1839
352 490
352 331
352 130
352 104
351 9797
351 7370
351 7120
351 6923
351 5877
351 5395
351 5283
351 3684
351 3016
351 1703
351 1473
351 918
351 499
351 189
351 42
351 5
350 8231
350 7975
350 7420
350 3508
350 3269
350 1819
350 1684
350 973
350 78
350 55
350 39
349 8250
349 7647
349 6930
349 6503
349 4493
349 1709
349 1609
349 1366
349 383
349 322
349 102
349 46
348 8990
348 8841
348 2246
348 99
348 82
348 20
347 8852
347 8639
347 8134
347 7445
347 6053
347 4916
347 4166
347 2153
347 2061
347 1938
347 1842
347 318
347 200
347 162
346 6007
346 5343
346 3764
346 3751
346 3638
346 3622
346 3078
346 2848
346 1453
346 1158
346 797
346 297
346 184
346 84
345 9771
345 8955
345 8939
345 8256
345 7605
345 7083
345 6861
345 6348
345 6342
345 6165
345 5452
345 5375
345 4524
345 4073
345 4034
345 3229
345 3146
345 2784
345 2678
345 2489
345 2329
345 2314
345 2270
345 2245
345 1813
345 1692
345 1121
345 975
345 827
345 789
345 552
345 387
345 265
345 92
345 90
344 9516
344 1133
344 156
344 7
344 4
343 9668
343 9353
343 8585
343 7811
343 7510
343 6746
343 6307
343 6285
343 6283
343 6049
343 5598
343 4482
343 4467
343 3776
343 3562
343 3548
343 3271
343 2987
343 2409
343 1711
343 1607
343 1356
343 1275
343 1235
343 911
343 881
343 369
343 291
343 171
343 16
342 9861
342 9160
342 8798
342 8653
342 8509
342 8422
342 7968
342 6429
342 6303
342 5985
342 4552
342 4017
342 3609
342 3534
342 3373
342 1459
342 1054
342 1038
342 850
342 695
342 618
342 566
342 377
342 366
342 300
342 69
342 7
341 6793
341 5049
341 3916
341 3683
341 2452
341 1836
341 184
341 7
341 5
340 8278
340 8101
340 7961
340 6954
340 6061
340 4435
340 557
340 541
340 146
340 91
340 43
339 9830
339 9455
339 7794
339 7763
339 6000
339 5960
339 4062
339 3629
339 3596
339 2986
339 2736
339 1444
339 1071
339 403
339 309
339 244
339 210
338 8880
338 6665
338 6220
338 6083
338 5469
338 4693
338 2931
338 2770
338 2415
338 2322
338 2029
338 1399
338 1363
338 1316
338 507
338 105
338 63
338 24
337 8825
337 8537
337 6680
337 6198
337 5826
337 5726
337 5686
337 5237
337 5195
337 5006
337 4501
337 4361
337 4140
337 3095
337 2427
337 1559
337 1277
337 541
337 540
337 505
337 250
337 117
337 6
336 9111
336 8409
336 8228
336 5037
336 4178
336 3980
336 3554
336 3528
336 2744
336 2453
336 2176
336 1123
336 625
336 365
336 363
336 152
336 72
336 5
335 5635
335 5020
335 4558
335 3837
335 3558
335 2761
335 2148
335 1659
335 1323
335 1255
335 972
335 820
335 807
335 646
335 553
335 526
335 482
335 100
335 18
335 11
334 5896
334 2221
334 569
334 176
334 28
334 14
333 9125
333 7948
333 5864
333 3735
333 2415
333 2003
333 1273
333 653
333 404
333 192
333 117
333 6
332 8074
332 7120
332 6901
332 6847
332 6361
332 5541
332 5294
332 5094
332 4793
332 4544
332 4475
332 3656
332 3635
332 3441
332 3204
332 2564
332 2492
332 2309
332 2257
332 2118
332 1954
332 1855
332 1778
332 1400
332 1393
332 1276
332 1244
332 1227
332 1175
332 1118
332 1117
332 1069
332 810
332 659
332 477
332 193
332 65
332 12
331 9231
331 8741
331 8713
331 6772
331 3438
331 2711
331 2595
331 2196
331 2068
331 1832
331 1403
331 1340
331 1175
331 717
331 352
331 294
331 82
331 7
330 8749
330 2545
330 951
330 720
330 294
330 200
330 156
329 6915
329 6591
329 6317
329 4300
329 2007
329 120
329 95
329 89
328 8710
328 8578
328 8428
328 8031
328 7104
328 6927
328 6796
328 5961
328 4792
328 4196
328 3965
328 3354
328 2828
328 2706
328 2374
328 2369
328 1956
328 1788
328 1379
328 1062
328 753
328 445
328 424
328 231
328 152
328 60
327 7816
327 7154
327 839
327 783
327 200
327 84
327 33
326 9985
326 9826
326 9497
326 9244
326 7548
326 7036
326 6864
326 6738
326 6662
326 6517
326 5155
326 4879
326 2412
326 2174
326 1539
326 1331
326 937
326 880
326 467
326 438
326 371
326 239
326 176
326 50
325 9252
325 9236
325 9073
325 7628
325 7447
325 7348
325 5665
325 3516
325 3213
325 3009
325 1736
325 1734
325 1588
325 1565
325 1223
325 1152
325 1070
325 959
325 645
325 19
325 16
325 11
324 9446
324 8426
324 6510
324 6348
324 5497
324 5158
324 5151
324 4877
324 3900
324 3024
324 2964
324 2110
324 1729
324 1388
324 761
324 578
324 576
324 562
324 145
324 17
324 1
323 7947
323 7726
323 7684
323 4068
323 3844
323 3404
323 3315
323 2932
323 227
323 4
323 3
322 9617
322 9109
322 6962
322 6193
322 5929
322 5665
322 3714
322 411
322 349
322 114
322 3
322 2
321 9830
321 7093
321 6794
321 4848
321 3372
321 2161
321 569
321 180
321 49
321 37
320 9833
320 9246
320 8436
320 7918
320 4436
320 3027
320 2235
320 645
320 528
320 456
320 448
320 389
320 146
320 101
320 0
319 8470
319 5377
319 225
319 176
319 38
318 9287
318 8049
318 7897
318 7509
318 3856
318 2278
318 2055
318 1728
318 1158
318 730
318 347
318 285
318 152
318 61
317 9425
317 5424
317 4917
317 3584
317 2307
317 2153
317 2054
317 1775
317 1772
317 1076
317 1026
317 1010
317 819
317 138
317 126
317 10
316 9756
316 9647
316 9146
316 8539
316 8087
316 8025
316 7408
316 6407
316 6213
316 6104
316 6095
316 3425
316 2870
316 2298
316 1696
316 1357
316 1317
316 1064
316 241
316 77
316 17
315 7177
315 5994
315 4530
315 3362
315 3155
315 2488
315 2150
315 2135
315 695
315 646
315 472
315 126
315 91
315 7
314 9905
314 3489
314 3382
314 1199
314 1122
314 202
314 71
314 4
313 7304
313 3825
313 1561
313 1175
313 855
313 473
313 200
313 153
313 25
312 5311
312 4993
312 4244
312 2994
312 1143
312 780
312 264
312 202
312 132
311 7889
311 7146
311 6410
311 5182
311 3852
311 2812
311 237
311 137
311 94
310 9060
310 8495
310 8212
310 6834
310 6490
310 6077
310 5344
310 4690
310 4323
310 3561
310 3242
310 2516
310 2483
310 1991
310 1849
310 1494
310 1229
310 939
310 892
310 804
310 769
310 741
310 504
310 203
310 6
310 5
309 9497
309 9184
309 8827
309 8810
309 8765
309 6952
309 6814
309 5727
309 5568
309 4833
309 4412
309 3504
309 2331
309 1354
309 1263
309 923
309 886
309 626
309 339
309 193
309 66
309 4
308 9964
308 9191
308 9095
308 6195
308 6149
308 83
308 10
308 2
307 9996
307 9363
307 8550
307 6439
307 6346
307 5932
307 5773
307 4864
307 4764
307 4719
307 4534
307 4001
307 3718
307 3119
307 2459
307 2165
307 2123
307 1940
307 1502
307 887
307 644
307 638
307 611
307 275
307 222
307 208
306 9705
306 8527
306 8021
306 7832
306 7429
306 3449
306 3171
306 1902
306 1549
306 1081
306 1043
306 407
306 181
306 50
306 4
305 9006
305 7369
305 6585
305 3306
305 1656
305 1464
305 1428
305 771
305 534
305 412
305 28
305 7
305 3
304 9755
304 9492
304 9329
304 9270
304 8467
304 8401
304 8219
304 8073
304 7505
304 7426
304 7170
304 6837
304 6275
304 6264
304 6167
304 5898
304 5170
304 4987
304 4733
304 4585
304 4362
304 4237
304 3728
304 3258
304 3098
304 2859
304 2817
304 2627
304 1988
304 1666
304 545
304 464
304 430
304 428
304 288
304 279
304 45
303 9488
303 9473
303 9295
303 9187
303 9131
303 8003
303 7764
303 7697
303 6223
303 4673
303 4565
303 4072
303 3309
303 3041
303 2620
303 2520
303 2481
303 2147
303 1999
303 1906
303 1799
303 1631
303 726
303 615
303 167
303 26
303 7
302 9629
302 8663
302 5774
302 5142
302 2463
302 1923
302 1368
302 661
302 69
302 45
302 2
301 9925
301 8397
301 7077
301 6994
301 6852
301 6551
301 6505
301 6273
301 5367
301 5202
301 3999
301 3285
301 2840
301 1346
301 1109
301 934
301 908
301 732
301 679
301 551
301 434
301 178
301 4
301 2
300 9647
300 9334
300 8625
300 8596
300 8131
300 7912
300 6258
300 6131
300 5635
300 5209
300 5040
300 4870
300 3928
300 2085
300 1841
300 1534
300 1336
300 1157
300 948
300 776
300 643
300 529
300 446
300 402
300 342
300 194
300 98
300 9
299 9425
299 7297
299 4798
299 3770
299 3344
299 2694
299 2207
299 611
299 52
299 26
299 15
298 7717
298 6764
298 6649
298 2051
298 536
298 176
298 130
298 99
297 9514
297 9512
297 8823
297 8338
297 7807
297 7623
297 6819
297 5111
297 4995
297 4490
297 4378
297 4000
297 3418
297 3400
297 3397
297 2740
297 2273
297 2254
297 461
297 420
297 346
297 287
297 147
297 7
296 9732
296 9374
296 9015
296 7576
296 7101
296 6090
296 5070
296 4955
296 4749
296 4428
296 3703
296 3696
296 3644
296 3462
296 2609
296 2560
296 532
296 16
296 11
296 0
295 8353
295 5478
295 5130
295 4636
295 4576
295 2932
295 2314
295 513
295 463
295 200
295 45
295 1
294 9924
294 9666
294 9601
294 8529
294 8388
294 8264
294 8185
294 8120
294 8065
294 7522
294 7158
294 6649
294 6641
294 6619
294 6012
294 5934
294 5154
294 4429
294 4393
294 4077
294 4048
294 3662
294 3600
294 2651
294 1667
294 1595
294 1427
294 1419
294 1218
294 1164
294 990
294 534
294 521
294 478
294 381
294 359
294 331
294 330
294 69
294 33
294 25
293 9842
293 9538
293 8133
293 7755
293 7540
293 7411
293 7006
293 5261
293 5157
293 5104
293 4588
293 4042
293 4029
293 2682
293 2611
293 2399
293 2357
293 2011
293 1982
293 1809
293 1404
293 1391
293 1308
293 1282
293 672
293 494
293 415
293 198
293 124
293 108
292 9874
292 9239
292 8789
292 8164
292 7498
292 7197
292 6761
292 6755
292 5920
292 4830
292 4789
292 4677
292 4321
292 3614
292 2930
292 2737
292 2717
292 2635
292 2049
292 1536
292 1390
292 491
292 488
292 433
292 371
292 260
292 114
292 88
291 9789
291 8870
291 8320
291 7625
291 6177
291 5496
291 4602
291 3725
291 2776
291 2334
291 869
291 677
291 343
291 41
291 34
291 28
290 9175
290 7955
290 6411
290 6404
290 5559
290 4950
290 3377
290 3267
290 3000
290 2912
290 2877
290 2728
290 2712
290 2069
290 1844
290 1611
290 1543
290 1487
290 627
290 260
290 141
290 7
289 9319
289 9225
289 7831
289 6233
289 5879
289 4456
289 3996
289 3693
289 3663
289 3355
289 2496
289 2304
289 2114
289 1847
289 401
289 83
289 57
289 5
288 9578
288 8047
288 7752
288 5601
288 5472
288 4881
288 3756
288 3649
288 2523
288 2422
288 2406
288 2250
288 1924
288 1910
288 1489
288 1485
288 1359
288 1295
288 814
288 744
288 497
288 487
288 457
288 368
288 363
288 304
288 227
288 130
288 35
287 8943
287 7493
287 297
287 211
287 96
287 2
286 5412
286 4190
286 3179
286 3052
286 2575
286 2452
286 2052
286 1916
286 891
286 721
286 418
286 391
286 384
286 378
286 19
286 7
286 0
285 8957
285 8024
285 7252
285 5979
285 5973
285 5902
285 5313
285 4195
285 3555
285 2873
285 2814
285 2272
285 2167
285 2149
285 1950
285 1680
285 1620
285 1593
285 1537
285 744
285 647
285 639
285 318
285 160
285 17
285 4
284 8586
284 7626
284 7003
284 3874
284 3336
284 2297
284 1683
284 1259
284 1142
284 879
284 486
284 429
284 248
284 126
284 32
283 6035
283 4076
283 3955
283 3611
283 1743
283 1024
283 76
283 26
283 17
282 9009
282 3154
282 2842
282 2403
282 1689
282 1288
282 1055
282 200
282 120
282 9
281 7423
281 6771
281 4627
281 388
281 274
281 244
281 14
280 9813
280 9099
280 8845
280 8628
280 7939
280 7818
280 7369
280 6143
280 5365
280 5285
280 5281
280 5213
280 4569
280 3734
280 3712
280 3595
280 3015
280 2762
280 2710
280 2498
280 2451
280 2417
280 2363
280 1107
280 1070
280 795
280 465
280 244
280 90
280 5
279 8543
279 8100
279 7384
279 6417
279 5643
279 5574
279 4898
279 4399
279 2590
279 2305
279 999
279 802
279 593
279 304
279 207
279 168
279 111
278 9778
278 9448
278 8427
278 8304
278 8297
278 8229
278 7585
278 6100
278 4855
278 4756
278 4550
278 2351
278 222
278 79
278 55
277 9908
277 8828
277 5444
277 5107
277 2852
277 1761
277 432
277 263
277 216
277 129
276 6647
276 4193
276 2886
276 2148
276 610
276 498
276 117
276 91
276 10
275 8948
275 8731
275 8603
275 8294
275 7771
275 7649
275 7508
275 3756
275 2004
275 1244
275 643
275 464
275 307
275 63
275 61
275 41
274 9420
274 9262
274 9191
274 8917
274 8909
274 8710
274 6312
274 5379
274 5019
274 3709
274 3678
274 3452
274 3432
274 2849
274 2749
274 2671
274 2334
274 1998
274 1948
274 1555
274 1148
274 1040
274 742
274 697
274 450
274 281
274 196
274 183
274 5
273 7805
273 7740
273 6242
273 3677
273 2991
273 2888
273 2717
273 2395
273 374
273 237
273 52
273 10
272 9836
272 9743
272 8056
272 5510
272 5373
272 3919
272 3893
272 1385
272 1216
272 887
272 265
272 250
272 18
271 9075
271 8449
271 8327
271 7124
271 4368
271 3716
271 2893
271 2209
271 1920
271 1821
271 1472
271 1458
271 1396
271 1180
271 1122
271 1004
271 971
271 778
271 703
271 61
271 46
271 39
270 9776
270 9663
270 8113
270 6991
270 6552
270 5177
270 3403
270 2085
270 185
270 169
270 84
269 7572
269 4193
269 2327
269 807
269 355
269 104
269 44
269 41
268 2811
268 2273
268 255
268 131
268 105
267 8925
267 8531
267 7531
267 7220
267 6529
267 5353
267 2000
267 1872
267 1194
267 153
267 79
267 28
266 9914
266 9367
266 8691
266 8115
266 8111
266 7771
266 6678
266 6453
266 4686
266 4609
266 2018
266 1854
266 1340
266 1081
266 955
266 149
266 113
266 54
265 9779
265 9557
265 9536
265 8528
265 7725
265 7512
265 7342
265 6565
265 6316
265 5963
265 5671
265 5602
265 4844
265 4602
265 4404
265 3783
265 2848
265 2812
265 2505
265 1700
265 1606
265 1545
265 1477
265 1433
265 1302
265 1270
265 1231
265 920
265 882
265 877
265 799
265 590
265 519
265 502
265 345
265 272
265 84
265 8
265 0
264 9874
264 9117
264 9054
264 8905
264 8226
264 7637
264 6699
264 6164
264 5113
264 4855
264 4372
264 2504
264 2366
264 2265
264 2262
264 2138
264 1900
264 1562
264 1504
264 1092
264 806
264 685
264 451
264 366
264 312
264 62
264 5
264 0
263 9631
263 8747
263 8745
263 8658
263 8644
263 8559
263 8234
263 6522
263 6030
263 5296
263 4605
263 4461
263 4409
263 3312
263 2562
263 2482
263 2248
263 1967
263 1940
263 1696
263 1361
263 870
263 787
263 549
263 277
263 138
263 35
263 33
262 8509
262 8168
262 6501
262 5950
262 5604
262 5392
262 5150
262 5086
262 5017
262 4741
262 4697
262 4145
262 4129
262 4053
262 3238
262 2988
262 2719
262 2619
262 2122
262 603
262 475
262 439
262 437
262 92
262 81
262 55
261 9756
261 8479
261 7151
261 3954
261 3253
261 2441
261 1161
261 651
261 36
261 31
261 8
260 8630
260 8554
260 8406
260 7682
260 7363
260 7209
260 6583
260 6528
260 6450
260 6400
260 6115
260 5965
260 5921
260 4723
260 4638
260 4272
260 4199
260 4194
260 3709
260 3041
260 2951
260 2693
260 2547
260 2537
260 2528
260 2409
260 2026
260 1849
260 1847
260 1823
260 1785
260 1664
260 1608
260 1542
260 1517
260 1481
260 1345
260 1319
260 1176
260 1005
260 949
260 917
260 891
260 760
260 750
260 703
260 593
260 527
260 436
260 423
260 400
260 364
260 292
260 290
260 177
260 41
260 30
259 9186
259 8638
259 6421
259 4091
259 3909
259 3177
259 1640
259 1535
259 503
259 176
259 32
259 28
258 9001
258 8659
258 8259
258 8045
258 6928
258 5964
258 5344
258 4510
258 4261
258 3296
258 2882
258 2354
258 1791
258 1552
258 1421
258 1270
258 1046
258 746
258 724
258 227
258 221
258 44
257 6158
257 4477
257 2304
257 1140
257 74
257 63
257 2
256 8343
256 8255
256 7817
256 7671
256 6546
256 5046
256 4815
256 4679
256 4526
256 3906
256 3821
256 3085
256 2851
256 2735
256 2464
256 2014
256 1754
256 1499
256 1077
256 922
256 544
256 468
256 422
256 124
256 81
256 27
255 8612
255 8209
255 8191
255 8118
255 8066
255 7796
255 7770
255 7740
255 7478
255 7355
255 7187
255 6384
255 6294
255 6103
255 5759
255 5587
255 5584
255 5266
255 5253
255 5027
255 4893
255 4510
255 4506
255 4190
255 4139
255 4072
255 3393
255 3172
255 2797
255 2744
255 2378
255 2320
255 2223
255 2129
255 1959
255 1929
255 1834
255 1695
255 1446
255 1366
255 1146
255 1104
255 913
255 892
255 846
255 808
255 807
255 723
255 630
255 522
255 268
255 174
255 135
255 1
254 9805
254 6306
254 3720
254 1168
254 888
254 868
254 134
254 90
254 33
253 8782
253 8766
253 7583
253 6405
253 4897
253 3018
253 2187
253 2175
253 2145
253 1592
253 801
253 672
253 159
253 87
253 23
252 9666
252 9333
252 8799
252 8003
252 7835
252 6892
252 3769
252 3337
252 2938
252 2764
252 2466
252 2464
252 1894
252 1746
252 1028
252 916
252 844
252 770
252 425
252 182
252 89
252 59
251 8541
251 7902
251 5502
251 4192
251 3788
251 2737
251 2215
251 1778
251 1286
251 102
251 27
251 7
250 7969
250 6887
250 4814
250 2673
250 2647
250 1982
250 1114
250 337
250 272
250 241
250 199
250 0
249 9552
249 8265
249 7572
249 7071
249 6632
249 5204
249 5040
249 4884
249 3808
249 3191
249 2648
249 809
249 577
249 211
249 14
249 6
248 8632
248 7384
248 6572
248 6262
248 5126
248 5003
248 4354
248 4178
248 3414
248 1106
248 823
248 284
248 239
248 88
248 3
247 9802
247 7992
247 7618
247 6746
247 6080
247 5380
247 5151
247 4439
247 4278
247 3465
247 3157
247 2956
247 2605
247 2013
247 1591
247 1027
247 936
247 885
247 457
247 354
247 138
247 45
247 0
246 9578
246 8904
246 8186
246 7711
246 7155
246 7072
246 6697
246 5845
246 5594
246 5309
246 5021
246 4813
246 4780
246 4738
246 3930
246 3902
246 3514
246 3500
246 3142
246 3107
246 3022
246 2606
246 2602
246 2461
246 2255
246 2080
246 2070
246 2002
246 1981
246 1869
246 1517
246 1330
246 1225
246 1060
246 937
246 631
246 174
246 28
246 7
245 7443
245 7311
245 7115
245 6760
245 6339
245 5005
245 3822
245 2785
245 2746
245 2315
245 789
245 498
245 395
245 70
245 11
245 7
244 8274
244 7933
244 7055
244 6878
244 5494
244 5350
244 5277
244 4715
244 4410
244 3707
244 3309
244 3161
244 2505
244 2320
244 2094
244 1952
244 1782
244 1436
244 742
244 713
244 567
244 442
244 339
244 281
244 280
244 199
244 27
244 19
243 7225
243 6200
243 5857
243 5797
243 1727
243 1039
243 829
243 99
243 68
243 5
242 9799
242 5033
242 4415
242 3627
242 1891
242 1225
242 1045
242 711
242 55
242 52
242 5
241 9182
241 9026
241 8696
241 8337
241 8090
241 7689
241 7645
241 7458
241 7324
241 6957
241 6608
241 5758
241 5386
241 5038
241 4076
241 3648
241 3357
241 3053
241 2131
241 1730
241 1624
241 1397
241 1091
241 938
241 853
241 845
241 316
241 250
241 98
241 80
241 28
240 9441
240 9253
240 8507
240 5866
240 5661
240 5509
240 3853
240 3395
240 3348
240 1774
240 1476
240 1348
240 1289
240 1241
240 1225
240 1006
240 895
240 723
240 692
240 394
240 229
240 156
240 42
239 9424
239 9251
239 9243
239 8991
239 7820
239 7789
239 7147
239 6531
239 4922
239 4905
239 4433
239 4076
239 3862
239 3296
239 3206
239 3025
239 2989
239 2229
239 2031
239 1239
239 1016
239 760
239 733
239 560
239 551
239 455
239 326
239 248
239 151
239 19
239 10
238 8749
238 4718
238 4685
238 547
238 124
238 95
238 71
237 9089
237 8791
237 4208
237 3343
237 3205
237 2803
237 2761
237 2551
237 2342
237 1839
237 1108
237 744
237 311
237 273
237 135
237 33
237 0
236 9630
236 6359
236 4778
236 4089
236 3711
236 3180
236 2773
236 2683
236 1745
236 1503
236 1299
236 594
236 28
236 23
236 14
235 8808
235 7765
235 7592
235 6628
235 6369
235 2402
235 819
235 127
235 19
235 14
234 9965
234 7964
234 7551
234 5098
234 3176
234 2515
234 2337
234 1423
234 140
234 45
234 7
233 7538
233 6570
233 5532
233 3114
233 669
233 149
233 97
233 5
232 8207
232 5552
232 5259
232 3944
232 3937
232 3649
232 2111
232 1509
232 1504
232 1051
232 874
232 698
232 369
232 83
232 9
232 2
231 8496
231 7321
231 5791
231 4968
231 2581
231 1855
231 465
231 445
231 374
231 328
231 211
231 7
231 0
230 9083
230 8659
230 4949
230 1136
230 1039
230 969
230 472
230 83
230 32
230 1
229 3032
229 2805
229 240
229 148
229 100
229 14
228 9349
228 9323
228 8115
228 7981
228 7226
228 7183
228 6723
228 6622
228 6300
228 6019
228 5185
228 4890
228 4649
228 4327
228 3914
228 3508
228 3409
228 2362
228 2215
228 1807
228 1791
228 1646
228 1132
228 1042
228 1012
228 983
228 862
228 796
228 791
228 768
228 726
228 485
228 452
228 448
228 207
228 49
228 45
227 8910
227 8802
227 7948
227 7390
227 6999
227 6893
227 6866
227 6803
227 6215
227 5847
227 4865
227 4478
227 3752
227 3667
227 2622
227 2533
227 1694
227 1664
227 1395
227 1016
227 844
227 769
227 637
227 528
227 419
227 323
227 288
227 258
227 150
227 55
227 31
226 7988
226 6873
226 6522
226 6054
226 4223
226 3820
226 3651
226 3343
226 1753
226 688
226 662
226 180
226 17
226 4
225 9646
225 9304
225 9009
225 8947
225 8511
225 8485
225 8383
225 7553
225 7524
225 7381
225 6800
225 6602
225 5757
225 5190
225 5081
225 5072
225 5020
225 4725
225 3603
225 3146
225 3145
225 2900
225 2284
225 2118
225 2064
225 1402
225 1329
225 1229
225 1201
225 1143
225 574
225 473
225 444
225 421
225 319
225 222
225 216
225 181
224 9829
224 8371
224 8057
224 6189
224 5650
224 5333
224 4512
224 3728
224 3232
224 3224
224 1919
224 1847
224 1631
224 1601
224 946
224 794
224 193
224 169
224 8
223 9201
223 7541
223 7267
223 6862
223 3482
223 2734
223 1886
223 1866
223 1452
223 1287
223 1099
223 915
223 523
223 199
223 38
223 9
222 9847
222 9788
222 9548
222 8227
222 7659
222 7329
222 7259
222 6854
222 6715
222 6685
222 5952
222 5698
222 5357
222 5068
222 4636
222 4181
222 3904
222 3766
222 3497
222 3193
222 2595
222 2112
222 1849
222 1707
222 1408
222 1204
222 1117
222 765
222 652
222 472
222 307
222 278
222 225
222 72
222 33
222 4
221 9988
221 8986
221 8730
221 8254
221 6220
221 5942
221 5129
221 2907
221 2458
221 1349
221 1203
221 1135
221 440
221 258
221 197
221 160
221 127
220 4462
220 2805
220 2007
220 1137
220 188
220 126
220 1
219 9846
219 9235
219 8206
219 8172
219 6995
219 5879
219 4651
219 537
219 362
219 110
219 61
219 3
218 8345
218 5714
218 5277
218 4630
218 4204
218 2584
218 184
218 91
218 74
217 9983
217 8095
217 7604
217 7149
217 2623
217 1840
217 1217
217 1119
217 1114
217 1028
217 1017
217 782
217 196
217 34
217 9
216 8796
216 8287
216 8185
216 7562
216 7467
216 7215
216 6603
216 6303
216 4964
216 4295
216 2617
216 2602
216 2165
216 1983
216 1776
216 1635
216 1373
216 1185
216 996
216 476
216 370
216 353
216 277
216 225
216 182
216 46
216 3
215 8508
215 5485
215 5079
215 4285
215 4059
215 2906
215 2767
215 1511
215 827
215 487
215 180
215 32
215 30
214 8070
214 6159
214 6112
214 6097
214 2899
214 2705
214 1694
214 1308
214 797
214 674
214 111
214 51
214 18
213 6490
213 4871
213 4025
213 3145
213 3129
213 2989
213 1564
213 1184
213 1030
213 687
213 94
213 72
213 69
212 9135
212 7550
212 5216
212 4477
212 3692
212 3676
212 3547
212 1898
212 1231
212 1188
212 652
212 651
212 452
212 81
212 26
212 3
211 8923
211 5327
211 3619
211 3545
211 3510
211 3393
211 2895
211 1599
211 680
211 522
211 287
211 249
211 231
211 115
211 78
211 12
210 8705
210 7844
210 6519
210 5958
210 5193
210 4624
210 4004
210 3966
210 3821
210 3407
210 2911
210 2123
210 1687
210 1379
210 1272
210 1112
210 748
210 543
210 416
210 339
210 22
210 19
210 5
209 7340
209 6882
209 6407
209 6357
209 2858
209 2435
209 2290
209 2036
209 1756
209 1630
209 1375
209 688
209 156
209 51
209 7
208 8780
208 7653
208 7423
208 4631
208 4523
208 3950
208 2734
208 2268
208 1835
208 666
208 307
208 100
208 33
208 7
207 9304
207 8599
207 8533
207 7625
207 7180
207 5840
207 5746
207 5062
207 4812
207 4683
207 3894
207 3226
207 3016
207 2813
207 2579
207 2404
207 1933
207 1772
207 1664
207 1648
207 1580
207 1214
207 966
207 845
207 762
207 734
207 684
207 393
207 388
207 279
207 228
207 199
207 77
207 15
206 6440
206 4457
206 1533
206 720
206 487
206 360
206 100
206 13
206 4
205 4016
205 772
205 519
205 450
205 43
205 25
205 11
204 9078
204 8856
204 8193
204 8081
204 7652
204 7076
204 6989
204 6828
204 6064
204 5670
204 5389
204 4852
204 4568
204 4212
204 3576
204 3569
204 3491
204 2780
204 2226
204 1994
204 1937
204 1780
204 1711
204 1395
204 1298
204 1213
204 1053
204 900
204 873
204 707
204 454
204 404
204 400
204 192
204 124
204 92
203 9098
203 8897
203 8891
203 8434
203 8343
203 8070
203 6200
203 5771
203 5160
203 4256
203 3810
203 3481
203 3255
203 3106
203 3060
203 3052
203 2822
203 2621
203 2478
203 2244
203 2029
203 1892
203 1732
203 1704
203 1604
203 1573
203 1386
203 1114
203 918
203 563
203 516
203 505
203 486
203 370
203 310
203 139
203 29
203 0
202 9535
202 8145
202 8051
202 7852
202 7091
202 6088
202 4564
202 4106
202 3318
202 3275
202 3104
202 2532
202 2502
202 2424
202 1950
202 836
202 364
202 314
202 312
202 58
202 29
202 4
201 9871
201 8743
201 7882
201 7701
201 6188
201 5964
201 5868
201 5463
201 4981
201 4706
201 4687
201 4641
201 2981
201 2201
201 1362
201 412
201 160
201 82
201 42
200 9591
200 9565
200 9220
200 8724
200 8376
200 7473
200 7267
200 7232
200 6958
200 6914
200 6603
200 5720
200 5437
200 5118
200 3684
200 3309
200 3189
200 3178
200 3120
200 2900
200 2763
200 2398
200 1909
200 1387
200 1368
200 1363
200 1269
200 1215
200 1006
200 994
200 925
200 889
200 581
200 492
200 460
200 347
200 330
200 327
200 313
200 295
200 282
200 48
200 7
200 0
199 8972
199 8759
199 8102
199 7442
199 6720
199 6515
199 6218
199 5558
199 5548
199 5477
199 4499
199 4057
199 3974
199 3781
199 3522
199 3485
199 3370
199 3342
199 2534
199 2373
199 2228
199 1863
199 1744
199 1729
199 1722
199 1554
199 1502
199 761
199 708
199 645
199 584
199 250
199 244
199 223
199 207
199 55
199 43
199 17
198 9540
198 9462
198 9236
198 9110
198 7876
198 7523
198 7519
198 6638
198 5394
198 5225
198 5030
198 4543
198 2996
198 2968
198 2808
198 2551
198 1507
198 1448
198 1282
198 820
198 293
198 93
198 30
198 7
197 8503
197 8393
197 8153
197 7394
197 6076
197 5876
197 5524
197 4839
197 4635
197 4549
197 4188
197 3601
197 3573
197 3471
197 3443
197 1447
197 1138
197 1037
197 1018
197 857
197 671
197 584
197 574
197 516
197 504
197 491
197 466
197 438
197 221
197 105
197 66
197 7
196 9122
196 9035
196 8498
196 7758
196 6228
196 6114
196 5897
196 5732
196 4806
196 4736
196 4499
196 4143
196 4024
196 2775
196 1089
196 789
196 274
196 217
196 110
196 90
196 0
195 9874
195 8216
195 7169
195 5515
195 3785
195 1501
195 970
195 83
195 78
195 7
194 8535
194 7643
194 5903
194 4873
194 2723
194 2485
194 2090
194 1984
194 1681
194 1176
194 300
194 125
194 69
194 8
193 9923
193 9879
193 9872
193 9707
193 9398
193 9384
193 9345
193 9190
193 8883
193 8582
193 8131
193 7617
193 7570
193 7109
193 6947
193 6942
193 6689
193 6631
193 6291
193 6151
193 6070
193 5643
193 5482
193 5450
193 5265
193 4361
193 4340
193 4332
193 4252
193 4065
193 4050
193 3695
193 3552
193 3490
193 3411
193 3322
193 3238
193 3179
193 3171
193 2937
193 2519
193 2345
193 2086
193 1850
193 1805
193 1678
193 1643
193 1453
193 1264
193 1150
193 1105
193 978
193 936
193 758
193 564
193 561
193 542
193 332
193 309
193 224
193 107
193 6
193 5
192 9914
192 9613
192 9101
192 8602
192 8224
192 7477
192 7157
192 6917
192 6906
192 6860
192 6199
192 5304
192 4082
192 3208
192 3090
192 2816
192 2802
192 2311
192 2269
192 2199
192 1931
192 1612
192 1598
192 1507
192 1491
192 1153
192 1152
192 988
192 915
192 879
192 867
192 727
192 693
192 650
192 333
192 204
192 189
192 33
192 9
191 6355
191 4816
191 3288
191 1251
191 901
191 865
191 113
191 109
191 7
190 8457
190 8416
190 7884
190 7757
190 6939
190 6274
190 5237
190 4907
190 3763
190 3243
190 3198
190 2913
190 2386
190 2344
190 2225
190 1514
190 1182
190 965
190 914
190 89
190 28
190 27
189 8603
189 7199
189 6569
189 5815
189 4127
189 3891
189 3339
189 398
189 351
189 192
189 98
189 26
189 8
188 9859
188 8819
188 8219
188 7424
188 7033
188 6886
188 6827
188 6704
188 6588
188 6090
188 5490
188 5311
188 5188
188 4951
188 4770
188 4669
188 4149
188 2413
188 2092
188 1171
188 1141
188 1089
188 1058
188 748
188 724
188 504
188 494
188 422
188 220
188 182
188 159
188 9
187 9713
187 9312
187 8714
187 8197
187 8135
187 8030
187 7917
187 7691
187 6922
187 6896
187 6729
187 6092
187 6034
187 5946
187 5915
187 5666
187 5372
187 4761
187 4011
187 3746
187 3739
187 3724
187 3620
187 3403
187 3319
187 2782
187 2661
187 2467
187 2270
187 1970
187 1626
187 1523
187 1411
187 1407
187 1322
187 1090
187 929
187 665
187 552
187 545
187 184
187 58
187 12
186 9392
186 9373
186 9346
186 9013
186 8449
186 8110
186 8086
186 7712
186 6967
186 6801
186 6548
186 4238
186 4096
186 2974
186 2739
186 2726
186 2591
186 2350
186 2216
186 2132
186 1769
186 1191
186 837
186 138
186 114
186 61
185 5997
185 3440
185 2195
185 1980
185 1918
185 1020
185 270
185 166
185 117
185 105
184 9857
184 9619
184 9610
184 9377
184 9292
184 9003
184 8761
184 8570
184 8511
184 8005
184 7670
184 7434
184 6908
184 6814
184 6766
184 6573
184 6058
184 6028
184 5752
184 5713
184 5186
184 5094
184 4871
184 4818
184 4683
184 4465
184 4423
184 4341
184 4152
184 4014
184 3784
184 3361
184 3093
184 3020
184 3000
184 2985
184 2714
184 2514
184 2508
184 2140
184 1855
184 1697
184 1628
184 1310
184 1192
184 1078
184 975
184 827
184 664
184 488
184 476
184 439
184 346
184 341
184 218
184 187
184 152
184 33
184 6
183 8961
183 8391
183 6254
183 6118
183 6026
183 4936
183 4521
183 4425
183 4301
183 3219
183 2124
183 2097
183 1400
183 1036
183 274
183 7
183 2
183 0
182 9570
182 9567
182 9162
182 8380
182 8057
182 7577
182 7187
182 6805
182 6803
182 6620
182 6205
182 6013
182 5181
182 5136
182 4738
182 3968
182 3838
182 3827
182 3753
182 3640
182 3495
182 3277
182 3258
182 3047
182 2383
182 2362
182 2343
182 2083
182 2016
182 1739
182 1706
182 1603
182 1355
182 1023
182 792
182 751
182 549
182 252
182 216
182 188
182 159
182 33
182 11
181 9574
181 8711
181 8466
181 8008
181 5704
181 5038
181 4349
181 4192
181 3934
181 2995
181 2321
181 1880
181 1206
181 1125
181 988
181 731
181 576
181 493
181 482
181 477
181 306
181 225
181 153
181 53
181 37
180 9339
180 7495
180 7421
180 6368
180 5404
180 4249
180 4201
180 4074
180 2831
180 2247
180 2198
180 2193
180 1118
180 687
180 629
180 321
180 226
180 215
180 60
180 18
180 3
179 9929
179 7417
179 6379
179 6134
179 6047
179 5940
179 5627
179 5279
179 5032
179 4789
179 3495
179 3439
179 407
179 102
179 42
179 26
178 9790
178 9561
178 8242
178 7901
178 7190
178 7153
178 6777
178 6400
178 6372
178 6073
178 6041
178 6005
178 5761
178 5579
178 5296
178 5250
178 4973
178 4748
178 4315
178 4211
178 4109
178 4057
178 3479
178 3317
178 3273
178 3250
178 2879
178 2743
178 2384
178 1804
178 1223
178 1181
178 1138
178 1005
178 882
178 763
178 758
178 662
178 601
178 591
178 576
178 561
178 542
178 301
178 102
178 7
178 5
177 9932
177 9834
177 9473
177 8804
177 5289
177 5156
177 4465
177 3932
177 3311
177 2895
177 2032
177 1787
177 1402
177 1228
177 878
177 578
177 534
177 260
177 117
177 5
177 0
176 9648
176 9149
176 8995
176 8673
176 8473
176 8147
176 7988
176 7985
176 7520
176 7421
176 7352
176 6775
176 6631
176 6450
176 6246
176 6166
176 6038
176 5828
176 5745
176 5682
176 5644
176 5117
176 4984
176 4674
176 4583
176 4578
176 4211
176 4129
176 3926
176 2911
176 2402
176 2329
176 2306
176 2252
176 1928
176 1909
176 1746
176 1569
176 1520
176 1361
176 1209
176 1171
176 1117
176 1100
176 863
176 756
176 445
176 433
176 416
176 382
176 334
176 326
176 319
176 298
176 259
176 90
176 29
176 0
175 8721
175 4526
175 2861
175 2426
175 2314
175 126
175 5
175 3
174 9840
174 9661
174 9180
174 9171
174 9033
174 8516
174 8361
174 8284
174 7934
174 7921
174 7798
174 7690
174 7601
174 7123
174 6748
174 6427
174 6412
174 5925
174 5767
174 5622
174 5517
174 4715
174 4598
174 4560
174 4147
174 4131
174 4081
174 3974
174 3573
174 3515
174 3074
174 2449
174 1969
174 1914
174 1699
174 1399
174 1326
174 1199
174 976
174 966
174 928
174 911
174 853
174 547
174 537
174 488
174 480
174 428
174 255
174 246
174 172
174 83
174 4
173 8272
173 7086
173 6196
173 5425
173 4667
173 2859
173 1341
173 1237
173 1174
173 88
173 7
173 4
172 9948
172 8737
172 8467
172 8172
172 5701
172 3327
172 2858
172 2759
172 2674
172 832
172 174
172 39
172 7
172 0
171 9405
171 9398
171 9343
171 9102
171 8371
171 8278
171 7976
171 7248
171 6806
171 6106
171 5977
171 5700
171 4623
171 2828
171 2814
171 2676
171 2635
171 2594
171 2044
171 1743
171 1655
171 1116
171 870
171 692
171 635
171 523
171 343
171 51
171 46
171 2
170 9677
170 9262
170 8230
170 7905
170 7419
170 7034
170 6398
170 5516
170 3181
170 1625
170 1353
170 1336
170 720
170 629
170 360
170 358
170 135
170 105
170 103
169 9120
169 8961
169 8729
169 8533
169 6641
169 6484
169 6464
169 5627
169 5490
169 5244
169 4907
169 4809
169 4231
169 3879
169 3775
169 3727
169 3231
169 3187
169 2922
169 2690
169 2396
169 2215
169 2173
169 1707
169 1582
169 1572
169 1150
169 1100
169 1097
169 1055
169 1029
169 1011
169 538
169 490
169 270
169 224
169 113
169 77
169 30
168 8257
168 7976
168 7230
168 4243
168 2645
168 2500
168 2372
168 2294
168 2212
168 1895
168 1821
168 1522
168 1250
168 1207
168 399
168 279
168 146
168 140
168 38
167 9979
167 8114
167 2686
167 2383
167 1668
167 303
167 67
167 30
167 7
166 9261
166 8668
166 8146
166 7588
166 7321
166 7239
166 7197
166 6211
166 6040
166 5856
166 5744
166 5637
166 4724
166 4287
166 4205
166 3621
166 3468
166 3350
166 3209
166 3099
166 3001
166 2361
166 2173
166 2075
166 2030
166 1866
166 1661
166 983
166 814
166 623
166 597
166 441
166 185
166 140
166 136
166 74
165 9571
165 9172
165 7291
165 6956
165 6646
165 6219
165 6001
165 5994
165 5035
165 4877
165 4681
165 3655
165 2685
165 2299
165 2005
165 1719
165 1686
165 1493
165 1425
165 1401
165 1376
165 1349
165 1165
165 1022
165 987
165 733
165 694
165 419
165 108
165 100
165 9
164 9966
164 9734
164 9691
164 9538
164 8054
164 6413
164 5644
164 4594
164 3697
164 3225
164 2886
164 2423
164 2357
164 1915
164 686
164 433
164 67
164 58
164 7
163 9343
163 7787
163 3151
163 2400
163 2159
163 2118
163 1661
163 1410
163 147
163 24
163 13
162 8951
162 7979
162 7870
162 7779
162 6950
162 4862
162 4315
162 3936
162 3272
162 2352
162 2227
162 1018
162 553
162 347
162 62
162 45
162 11
161 8049
161 6324
161 5099
161 5014
161 4479
161 3939
161 3535
161 2442
161 2142
161 2059
161 1827
161 1233
161 490
161 108
161 66
161 55
160 8039
160 7602
160 7249
160 6713
160 5519
160 5517
160 4505
160 2753
160 2751
160 2402
160 2333
160 1987
160 1370
160 1143
160 1036
160 971
160 840
160 781
160 774
160 701
160 430
160 285
160 221
160 201
160 38
160 31
160 19
159 9379
159 7870
159 7702
159 3842
159 3106
159 2880
159 2371
159 1457
159 767
159 640
159 253
159 188
159 182
159 124
159 9
159 0
158 8981
158 8671
158 8627
158 7738
158 7592
158 7015
158 6682
158 5899
158 5748
158 5328
158 4409
158 3891
158 3849
158 2092
158 1557
158 1335
158 1332
158 1042
158 946
158 431
158 426
158 409
158 89
158 19
158 3
157 8434
157 7748
157 7656
157 7571
157 6083
157 5893
157 4342
157 3042
157 2987
157 1668
157 1654
157 1584
157 930
157 515
157 74
157 25
157 6
156 9943
156 9300
156 9228
156 8482
156 7707
156 6924
156 6445
156 6426
156 5630
156 5440
156 5400
156 5220
156 4979
156 4707
156 4350
156 4281
156 3694
156 3638
156 3433
156 3297
156 3277
156 3228
156 2976
156 2928
156 2894
156 2164
156 2042
156 1985
156 1935
156 1793
156 1757
156 1703
156 1636
156 1483
156 1454
156 1401
156 1344
156 960
156 776
156 632
156 613
156 588
156 443
156 344
156 330
156 240
156 209
156 28
156 12
156 8
155 7896
155 7180
155 5148
155 2266
155 1878
155 1477
155 927
155 148
155 117
155 7
154 9495
154 8980
154 8072
154 7188
154 6068
154 5420
154 4002
154 1636
154 1294
154 1247
154 532
154 414
154 13
154 8
154 7
153 9636
153 8888
153 8647
153 7815
153 7652
153 7612
153 7521
153 6823
153 6779
153 6558
153 6274
153 6175
153 5995
153 5866
153 5792
153 5691
153 5438
153 4878
153 4839
153 4710
153 4696
153 4305
153 3747
153 3471
153 3308
153 2796
153 2533
153 2445
153 2324
153 2301
153 2139
153 2043
153 2001
153 1871
153 1850
153 1831
153 1685
153 1657
153 1389
153 1315
153 1124
153 977
153 901
153 825
153 694
153 681
153 644
153 554
153 463
153 313
153 267
153 181
153 45
153 27
153 9
152 9594
152 5877
152 706
152 336
152 328
152 318
152 184
152 60
152 9
152 5
151 7451
151 7248
151 5353
151 5321
151 5174
151 3832
151 3384
151 1418
151 1208
151 877
151 729
151 640
151 503
151 478
151 399
151 378
151 239
151 134
151 46
151 37
150 9673
150 9572
150 9501
150 9412
150 9057
150 8956
150 8882
150 8801
150 8771
150 8480
150 8234
150 6347
150 6188
150 5460
150 4990
150 4584
150 4359
150 4325
150 4136
150 3787
150 3266
150 3211
150 2503
150 2214
150 1925
150 1790
150 1725
150 1410
150 1104
150 1061
150 987
150 829
150 784
150 398
150 380
150 227
150 122
150 29
150 26
149 7049
149 6723
149 6629
149 6402
149 6169
149 3951
149 3278
149 2868
149 2749
149 2672
149 1702
149 1530
149 800
149 466
149 266
149 233
149 125
149 50
149 9
148 8311
148 7565
148 7466
148 7106
148 6566
148 6042
148 1616
148 1421
148 1200
148 1162
148 843
148 229
148 155
148 135
148 117
148 42
147 9396
147 8531
147 8203
147 7796
147 7772
147 7686
147 6621
147 5950
147 5590
147 5307
147 4406
147 4248
147 3688
147 3475
147 2817
147 2596
147 2496
147 2474
147 2417
147 2062
147 1994
147 1910
147 1482
147 1377
147 1324
147 1023
147 980
147 889
147 859
147 793
147 735
147 529
147 514
147 426
147 415
147 397
147 383
147 297
147 163
147 100
147 63
147 4
146 9671
146 9380
146 6741
146 5430
146 5128
146 3601
146 1875
146 1857
146 1518
146 1377
146 1302
146 1207
146 538
146 340
146 320
146 168
146 55
146 45
146 14
145 9127
145 8392
145 8085
145 7950
145 7171
145 6498
145 4594
145 4124
145 3825
145 3305
145 1784
145 324
145 89
145 23
145 7
144 9890
144 7433
144 6364
144 4668
144 4119
144 2918
144 2692
144 2471
144 1706
144 1513
144 1470
144 1328
144 808
144 362
144 353
144 50
144 44
144 7
143 7306
143 7131
143 7078
143 6263
143 5353
143 4488
143 4334
143 3747
143 3441
143 2639
143 2281
143 1490
143 1276
143 1120
143 917
143 857
143 783
143 515
143 142
143 97
143 27
142 9559
142 9341
142 8980
142 8924
142 8908
142 8881
142 8454
142 8441
142 8437
142 8387
142 8083
142 7782
142 7631
142 7595
142 6925
142 6595
142 6511
142 6503
142 5968
142 5965
142 5816
142 5808
142 5772
142 5736
142 4867
142 4374
142 4100
142 4073
142 3629
142 3268
142 2547
142 2515
142 2375
142 2193
142 2172
142 2067
142 1965
142 1776
142 1191
142 1092
142 1052
142 715
142 586
142 474
142 419
142 416
142 357
142 143
142 47
142 4
142 3
141 9958
141 9173
141 9151
141 8979
141 8662
141 8529
141 8227
141 7354
141 7334
141 6922
141 6795
141 6618
141 6547
141 6352
141 5179
141 5045
141 4895
141 4777
141 4171
141 4067
141 4062
141 3521
141 3023
141 2897
141 2845
141 2837
141 2276
141 1725
141 1653
141 1631
141 1575
141 1352
141 1342
141 784
141 757
141 633
141 553
141 531
141 493
141 290
141 55
141 9
141 3
140 9609
140 9447
140 9308
140 9123
140 9102
140 8183
140 7956
140 7832
140 7470
140 7282
140 6367
140 6111
140 5600
140 5545
140 5008
140 4797
140 4726
140 4595
140 4124
140 3852
140 3745
140 3366
140 3328
140 3289
140 3237
140 3234
140 3151
140 3001
140 2952
140 2862
140 2767
140 2694
140 2679
140 1660
140 1567
140 1480
140 1478
140 1353
140 1330
140 1273
140 931
140 507
140 505
140 372
140 234
140 168
140 166
140 49
140 28
140 0
139 8600
139 8152
139 5122
139 3807
139 2352
139 1935
139 1811
139 1652
139 203
139 17
139 7
139 4
138 9896
138 9261
138 8771
138 7544
138 7469
138 7408
138 7312
138 6557
138 6033
138 5610
138 5533
138 4714
138 4623
138 4296
138 4232
138 4122
138 4001
138 3679
138 3541
138 3200
138 2835
138 2793
138 2681
138 2639
138 2580
138 2539
138 2453
138 2132
138 2111
138 1961
138 1797
138 1796
138 1718
138 1352
138 1052
138 993
138 890
138 779
138 672
138 545
138 317
138 263
138 247
138 186
138 20
138 18
138 10
137 8922
137 8778
137 8128
137 7845
137 7666
137 6224
137 5768
137 5443
137 5112
137 4568
137 4090
137 2919
137 2915
137 873
137 754
137 578
137 546
137 311
137 126
137 95
137 10
136 8641
136 7113
136 6117
136 2365
136 1412
136 906
136 880
136 166
136 55
136 6
136 4
135 9130
135 8515
135 7458
135 7420
135 6345
135 6328
135 5555
135 5484
135 5223
135 4562
135 4459
135 4103
135 3896
135 3707
135 3599
135 3530
135 3306
135 3123
135 3114
135 3090
135 3078
135 2578
135 2335
135 2296
135 2070
135 1668
135 1641
135 1603
135 1488
135 1250
135 939
135 922
135 813
135 704
135 444
135 428
135 255
135 237
135 170
135 148
135 92
135 23
135 7
134 8129
134 7039
134 5087
134 4616
134 3960
134 3421
134 3013
134 2447
134 1787
134 254
134 151
134 115
134 43
134 5
133 7186
133 3744
133 1822
133 82
133 51
133 7
132 9788
132 9351
132 8812
132 8395
132 7852
132 7657
132 6808
132 6584
132 6102
132 5208
132 5159
132 4745
132 4517
132 3019
132 3002
132 2764
132 2471
132 2281
132 1672
132 833
132 571
132 312
132 122
132 89
132 16
131 9456
131 8843
131 8359
131 8090
131 7158
131 6512
131 5451
131 2697
131 2659
131 2367
131 1904
131 1730
131 1569
131 1331
131 1259
131 1048
131 1047
131 953
131 685
131 453
131 435
131 268
131 80
131 30
131 20
130 8846
130 7458
130 7178
130 6207
130 3987
130 3423
130 3208
130 2230
130 2174
130 2158
130 2157
130 2144
130 1202
130 989
130 830
130 586
130 520
130 500
130 417
130 352
130 298
130 288
130 33
130 16
130 3
129 9287
129 8643
129 7891
129 5346
129 4020
129 1830
129 1297
129 1186
129 277
129 110
129 102
129 4
128 8363
128 7246
128 7191
128 6311
128 6194
128 6003
128 5764
128 4753
128 4392
128 4304
128 3473
128 3158
128 2799
128 1991
128 1489
128 871
128 49
128 45
128 0
127 7116
127 6712
127 6700
127 5922
127 5805
127 5712
127 5481
127 5326
127 4388
127 4254
127 3880
127 3574
127 3210
127 3076
127 2940
127 2484
127 2405
127 1891
127 1653
127 1337
127 1235
127 1193
127 986
127 967
127 721
127 714
127 673
127 235
127 221
127 28
127 23
127 7
126 9796
126 9787
126 9644
126 8845
126 8508
126 8475
126 7330
126 7172
126 6768
126 6497
126 5913
126 5458
126 5059
126 4864
126 4753
126 4518
126 4346
126 4204
126 4203
126 4030
126 2841
126 1957
126 1237
126 949
126 887
126 741
126 610
126 579
126 400
126 364
126 317
126 315
126 284
126 220
126 175
126 137
126 53
126 51
126 8
125 7907
125 6337
125 6299
125 6154
125 5966
125 5366
125 5178
125 4766
125 4673
125 4184
125 3747
125 3262
125 2677
125 2602
125 2308
125 2274
125 2197
125 1836
125 1695
125 1557
125 1553
125 1492
125 914
125 835
125 798
125 591
125 443
125 380
125 375
125 194
125 149
125 77
125 16
125 7
124 8439
124 8425
124 7534
124 6979
124 6731
124 6533
124 6506
124 5747
124 5689
124 3382
124 3133
124 3111
124 2730
124 2298
124 2040
124 1515
124 1098
124 919
124 864
124 823
124 293
124 256
124 238
124 204
124 159
124 104
124 87
124 28
123 8842
123 8126
123 6647
123 6130
123 6113
123 5580
123 4015
123 3705
123 3450
123 2380
123 1795
123 793
123 760
123 657
123 611
123 477
123 393
123 65
123 28
123 12
122 8865
122 8528
122 8079
122 7646
122 6895
122 6572
122 6561
122 6338
122 5862
122 5360
122 5155
122 4629
122 4608
122 4522
122 3587
122 3407
122 3147
122 2971
122 2775
122 2675
122 2530
122 2527
122 2027
122 1874
122 1726
122 1242
122 1197
122 1133
122 752
122 731
122 663
122 381
122 150
122 132
122 76
122 74
122 10
121 881
121 117
121 31
121 3
120 9544
120 9467
120 9002
120 8968
120 8414
120 7851
120 7781
120 7777
120 7719
120 7442
120 6264
120 6120
120 5975
120 5869
120 5686
120 5422
120 5337
120 4754
120 4414
120 4390
120 4125
120 4052
120 3953
120 3659
120 3134
120 2832
120 2779
120 2617
120 2550
120 2293
120 2237
120 2088
120 1795
120 1779
120 1576
120 1520
120 1462
120 1398
120 1289
120 981
120 905
120 779
120 634
120 621
120 540
120 431
120 329
120 282
120 101
120 90
120 8
119 9550
119 9439
119 7642
119 7247
119 5684
119 4894
119 3961
119 3719
119 3239
119 3007
119 2679
119 2188
119 2025
119 1833
119 1423
119 1113
119 1098
119 517
119 392
119 27
119 4
119 1
118 9762
118 8589
118 8373
118 8325
118 6969
118 4445
118 4139
118 1920
118 1514
118 1325
118 804
118 679
118 368
118 68
118 25
118 17
117 9856
117 9326
117 9049
117 8517
117 7982
117 7943
117 7395
117 7265
117 6997
117 6897
117 6725
117 6333
117 6260
117 6252
117 5798
117 5241
117 5197
117 4693
117 4434
117 4324
117 4255
117 4139
117 4112
117 4088
117 3950
117 3936
117 3543
117 3431
117 3289
117 3083
117 3027
117 2950
117 2834
117 2358
117 2155
117 2154
117 2058
117 1997
117 1872
117 1851
117 1707
117 1532
117 1409
117 1183
117 1138
117 1099
117 1034
117 1022
117 967
117 896
117 852
117 805
117 734
117 728
117 465
117 452
117 337
117 333
117 276
117 185
117 177
117 155
117 148
117 121
117 65
117 41
117 35
116 9242
116 3981
116 3823
116 2935
116 1253
116 93
116 88
116 11
115 9305
115 8803
115 8747
115 7870
115 7604
115 7548
115 6453
115 4259
115 4114
115 4083
115 3985
115 3725
115 3588
115 3585
115 2755
115 2366
115 2038
115 1747
115 1192
115 1048
115 848
115 693
115 211
115 134
115 107
115 4
115 2
114 9419
114 8640
114 7726
114 7627
114 6929
114 6775
114 6685
114 6662
114 5873
114 4799
114 4369
114 2556
114 1598
114 1496
114 984
114 518
114 322
114 292
114 186
114 86
114 30
114 19
113 9806
113 9789
113 8629
113 7625
113 7156
113 7143
113 6796
113 6532
113 6413
113 6006
113 5655
113 5397
113 5337
113 5176
113 4055
113 3598
113 3318
113 3031
113 2465
113 2201
113 1952
113 1859
113 1573
113 1360
113 1285
113 1243
113 1099
113 951
113 886
113 618
113 593
113 530
113 497
113 496
113 401
113 266
113 191
113 169
113 66
113 22
113 7
112 9657
112 8786
112 8079
112 5251
112 4719
112 1130
112 637
112 591
112 480
112 95
112 52
112 33
111 8608
111 7767
111 6129
111 5033
111 4405
111 4368
111 4201
111 3941
111 3071
111 2688
111 2684
111 1520
111 1186
111 712
111 613
111 425
111 279
111 214
111 84
111 60
111 59
110 9804
110 9021
110 8791
110 8722
110 8645
110 8461
110 7930
110 6934
110 6413
110 6293
110 6268
110 5271
110 4851
110 4793
110 4784
110 4747
110 4711
110 4695
110 4028
110 3988
110 3978
110 3686
110 3380
110 3088
110 2893
110 2822
110 2754
110 2711
110 2679
110 2415
110 2380
110 2282
110 2176
110 2086
110 1973
110 1936
110 1824
110 1588
110 1462
110 1399
110 1369
110 1326
110 1267
110 1118
110 1069
110 1064
110 921
110 875
110 735
110 708
110 700
110 661
110 644
110 612
110 569
110 568
110 489
110 459
110 436
110 219
110 196
110 129
110 84
110 52
110 33
109 8776
109 8740
109 7967
109 6473
109 5927
109 5388
109 3890
109 3610
109 2887
109 1884
109 1237
109 965
109 532
109 191
109 84
109 3
109 0
108 9962
108 9471
108 8152
108 7400
108 6346
108 6096
108 5236
108 4779
108 2921
108 2460
108 2413
108 2304
108 2232
108 2176
108 2170
108 1616
108 1614
108 1388
108 1262
108 841
108 783
108 595
108 501
108 455
108 417
108 413
108 293
108 165
108 161
108 37
108 4
108 2
107 9826
107 9247
107 9058
107 8982
107 7905
107 6726
107 6485
107 6373
107 6004
107 4613
107 4111
107 3818
107 3805
107 3487
107 3473
107 3197
107 3064
107 3006
107 2558
107 1671
107 1651
107 1478
107 1248
107 942
107 747
107 496
107 474
107 193
107 115
107 99
107 19
107 13
106 9938
106 8654
106 6980
106 6913
106 2915
106 1930
106 1885
106 1613
106 1318
106 885
106 872
106 855
106 516
106 379
106 16
106 9
106 4
105 8937
105 8935
105 8308
105 7894
105 7842
105 6858
105 5005
105 4442
105 3869
105 3706
105 2862
105 2389
105 2019
105 1817
105 1795
105 1473
105 1128
105 1019
105 338
105 268
105 197
105 185
105 170
105 75
105 37
105 17
104 8894
104 8262
104 8061
104 6800
104 6768
104 6278
104 6196
104 5806
104 5056
104 4289
104 4180
104 3415
104 3345
104 2826
104 2653
104 2224
104 2156
104 1313
104 1303
104 1013
104 753
104 603
104 403
104 352
104 269
104 124
104 37
104 32
104 21
103 9304
103 8734
103 4795
103 2850
103 1184
103 170
103 100
103 7
103 4
102 9987
102 9969
102 9940
102 9909
102 9404
102 8000
102 7895
102 7574
102 7368
102 6230
102 6183
102 5875
102 5253
102 5042
102 4776
102 4744
102 4663
102 4616
102 4234
102 3938
102 3506
102 2985
102 2807
102 2350
102 2287
102 2071
102 2002
102 1936
102 1927
102 1613
102 1508
102 1358
102 1267
102 1236
102 958
102 952
102 899
102 777
102 683
102 626
102 349
102 251
102 179
102 178
102 129
102 45
102 14
102 0
101 8113
101 6681
101 4521
101 2772
101 1317
101 1178
101 1026
101 320
101 120
101 19
101 6
101 0
100 9411
100 9257
100 9204
100 9141
100 9073
100 8992
100 8978
100 8888
100 8826
100 8487
100 8420
100 8312
100 8284
100 8215
100 7949
100 7787
100 7706
100 7696
100 7551
100 7515
100 7419
100 7019
100 6927
100 6811
100 6708
100 6624
100 6550
100 6511
100 6421
100 6362
100 6247
100 6132
100 5721
100 5640
100 5511
100 5484
100 5095
100 4856
100 4291
100 4029
100 3460
100 3243
100 3084
100 3032
100 2912
100 2780
100 2642
100 2621
100 2529
100 2504
100 2344
100 2192
100 2117
100 2059
100 2018
100 1885
100 1747
100 1621
100 1347
100 1289
100 1177
100 1151
100 1126
100 1123
100 1015
100 868
100 800
100 722
100 705
100 656
100 489
100 485
100 459
100 439
100 432
100 335
100 229
100 208
100 206
100 165
100 147
100 103
100 35
100 33
100 7
99 9210
99 9027
99 8968
99 8319
99 8162
99 7002
99 5872
99 5653
99 5190
99 3840
99 3724
99 3439
99 3109
99 2436
99 2051
99 1928
99 1923
99 1817
99 966
99 642
99 461
99 348
99 298
99 243
99 107
99 52
99 7
99 0
98 8532
98 7846
98 7508
98 7409
98 7166
98 6990
98 6904
98 6805
98 6646
98 6622
98 5869
98 5624
98 5602
98 4570
98 4446
98 3915
98 3386
98 2885
98 2505
98 2473
98 1922
98 1056
98 867
98 772
98 492
98 300
98 241
98 189
98 50
98 14
98 0
97 9993
97 9520
97 9384
97 8992
97 8486
97 8087
97 7415
97 6736
97 5198
97 5093
97 4641
97 4338
97 4171
97 4110
97 3199
97 3047
97 2970
97 2966
97 1877
97 1837
97 1336
97 1239
97 1232
97 985
97 470
97 233
97 143
97 23
97 9
97 7
96 6627
96 5933
96 4320
96 287
96 13
96 7
96 6
95 9955
95 8898
95 8830
95 7960
95 6988
95 6750
95 6352
95 6163
95 5980
95 5175
95 5128
95 3994
95 3798
95 3268
95 2663
95 2312
95 2175
95 2105
95 1960
95 1732
95 1208
95 628
95 509
95 329
95 238
95 137
95 112
95 65
95 7
95 5
94 9072
94 8555
94 7800
94 6773
94 6190
94 5761
94 4547
94 3280
94 1964
94 1277
94 1045
94 483
94 311
94 213
94 92
94 78
94 20
93 9575
93 6998
93 6909
93 6538
93 5601
93 5370
93 5312
93 5137
93 5095
93 4872
93 4295
93 3613
93 3545
93 3326
93 3182
93 2965
93 2927
93 2792
93 2759
93 2713
93 2399
93 2280
93 2241
93 1979
93 1587
93 1222
93 1183
93 1156
93 1028
93 849
93 843
93 673
93 638
93 198
93 116
93 43
93 6
93 1
92 9603
92 9595
92 9151
92 8614
92 8401
92 8015
92 7926
92 7402
92 7339
92 7060
92 7036
92 6287
92 6078
92 5951
92 5887
92 5435
92 5250
92 5124
92 4721
92 4551
92 4364
92 4120
92 4043
92 4031
92 3865
92 3426
92 3123
92 2560
92 2416
92 2361
92 2194
92 2175
92 1897
92 1641
92 1626
92 1486
92 1049
92 765
92 747
92 717
92 699
92 687
92 629
92 598
92 451
92 345
92 262
92 204
92 135
92 94
92 20
92 7
92 0
91 9369
91 8924
91 8655
91 8279
91 7571
91 6875
91 6834
91 6437
91 5802
91 5239
91 5134
91 4939
91 4676
91 3422
91 2433
91 2353
91 2036
91 1803
91 1605
91 1582
91 1321
91 1291
91 1268
91 940
91 926
91 837
91 710
91 702
91 604
91 541
91 470
91 361
91 340
91 315
91 276
91 218
91 9
91 6
91 3
90 9997
90 9300
90 9238
90 9122
90 9035
90 8740
90 8009
90 7349
90 6911
90 5657
90 5286
90 5174
90 5125
90 5073
90 5028
90 4505
90 4177
90 4117
90 3782
90 3723
90 3690
90 3464
90 2996
90 2463
90 2296
90 1284
90 1205
90 1181
90 1061
90 1047
90 925
90 860
90 729
90 618
90 345
90 280
90 254
90 196
90 176
90 120
90 77
90 68
90 33
89 9992
89 9850
89 9778
89 9697
89 8726
89 8636
89 8624
89 8532
89 8300
89 8089
89 7902
89 7518
89 6447
89 6370
89 5583
89 5563
89 5205
89 4892
89 4480
89 3392
89 3360
89 3282
89 3219
89 2907
89 2741
89 2730
89 2543
89 2223
89 1915
89 1594
89 1415
89 1021
89 559
89 460
89 398
89 329
89 252
89 190
89 158
89 145
89 132
89 18
89 4
89 3
88 9185
88 8815
88 8445
88 8026
88 7469
88 5997
88 5752
88 4047
88 3050
88 2999
88 2916
88 2490
88 2240
88 2134
88 2127
88 2095
88 1956
88 1951
88 1418
88 1305
88 1172
88 1165
88 1147
88 976
88 623
88 622
88 558
88 292
88 248
88 173
88 116
88 79
88 62
88 7
87 8830
87 8334
87 7967
87 6035
87 2619
87 2265
87 1376
87 253
87 124
87 80
87 75
87 7
86 8603
86 8576
86 7837
86 7495
86 6466
86 6312
86 3440
86 2974
86 2290
86 1286
86 592
86 114
86 44
86 25
86 9
85 9278
85 5046
85 1840
85 31
85 28
85 4
84 9805
84 9654
84 9574
84 9357
84 8606
84 8404
84 8019
84 7747
84 7708
84 7044
84 6982
84 6917
84 6475
84 6393
84 6380
84 6312
84 6040
84 3817
84 3807
84 3564
84 3349
84 3043
84 2871
84 2638
84 2539
84 2164
84 1743
84 1523
84 1438
84 676
84 670
84 665
84 628
84 579
84 572
84 426
84 379
84 346
84 327
84 270
84 265
84 111
84 110
84 109
84 29
84 4
84 3
83 9496
83 9357
83 9299
83 9254
83 9229
83 9206
83 9084
83 8132
83 8053
83 7085
83 6487
83 6235
83 5864
83 5675
83 5045
83 4932
83 4040
83 3923
83 3612
83 3486
83 3480
83 2992
83 2845
83 2663
83 2438
83 2100
83 2088
83 1895
83 1825
83 1457
83 1419
83 1355
83 1317
83 1314
83 1300
83 1233
83 1025
83 1003
83 959
83 862
83 838
83 607
83 365
83 308
83 289
83 232
83 230
83 195
83 174
83 55
83 28
83 4
82 9753
82 9723
82 8890
82 8766
82 8682
82 8542
82 7956
82 7168
82 6590
82 5976
82 5100
82 4727
82 348
82 331
82 201
82 133
82 72
82 33
82 12
81 8991
81 8829
81 5588
81 4809
81 4500
81 4266
81 3297
81 942
81 828
81 370
81 262
81 256
81 212
81 72
81 9
81 7
80 9959
80 9709
80 9652
80 8867
80 8078
80 8037
80 7193
80 6202
80 5837
80 5604
80 5472
80 5396
80 4870
80 4675
80 3758
80 3079
80 1907
80 1852
80 1844
80 1589
80 1468
80 1463
80 1036
80 567
80 356
80 241
80 131
80 87
80 34
80 32
80 15
79 9583
79 9329
79 8590
79 7666
79 7558
79 5762
79 5605
79 5510
79 5331
79 5013
79 3618
79 3579
79 3568
79 3010
79 2805
79 2108
79 1741
79 1705
79 833
79 633
79 513
79 509
79 471
79 278
79 267
79 88
79 49
79 6
79 2
78 9053
78 8472
78 7387
78 7276
78 7091
78 6841
78 6201
78 5859
78 4685
78 4661
78 4554
78 4229
78 4183
78 3618
78 3499
78 2670
78 2425
78 2318
78 2222
78 2179
78 2084
78 1756
78 1576
78 1325
78 1137
78 1123
78 1103
78 1027
78 1001
78 881
78 859
78 847
78 682
78 407
78 374
78 350
78 211
78 195
78 94
78 49
78 20
78 16
77 9882
77 9764
77 9658
77 9531
77 9441
77 9431
77 9260
77 9137
77 9125
77 9096
77 8835
77 8814
77 8267
77 8175
77 7888
77 7783
77 7697
77 7639
77 7524
77 7167
77 6957
77 6859
77 6674
77 5455
77 5446
77 5211
77 5191
77 5189
77 5063
77 5012
77 4993
77 4843
77 4789
77 4660
77 4645
77 4545
77 4519
77 4197
77 4032
77 3954
77 3772
77 3550
77 3521
77 3483
77 3479
77 3442
77 3373
77 3263
77 3033
77 2961
77 2958
77 2902
77 2793
77 2606
77 2557
77 2549
77 2312
77 2041
77 1868
77 1768
77 1637
77 1556
77 1426
77 1344
77 1189
77 1095
77 1039
77 834
77 716
77 705
77 696
77 642
77 588
77 509
77 442
77 359
77 355
77 316
77 207
77 169
77 125
77 90
77 50
77 35
77 8
76 9140
76 8485
76 8243
76 6530
76 6226
76 5704
76 5651
76 5084
76 4869
76 4379
76 4345
76 4202
76 3930
76 2628
76 2535
76 1658
76 1619
76 1471
76 1466
76 1256
76 1218
76 1110
76 709
76 694
76 667
76 529
76 394
76 388
76 382
76 372
76 283
76 122
76 33
76 23
76 6
75 8578
75 5925
75 5673
75 4762
75 4511
75 4210
75 2234
75 780
75 717
75 652
75 512
75 105
75 87
75 44
75 27
75 0
74 9548
74 8673
74 8330
74 8258
74 8239
74 7336
74 5913
74 5688
74 5612
74 5591
74 4580
74 4218
74 4203
74 3542
74 3385
74 3348
74 3155
74 3115
74 2990
74 2377
74 2355
74 2081
74 2043
74 2039
74 1990
74 1294
74 890
74 809
74 755
74 743
74 660
74 257
74 218
74 166
74 157
74 122
74 41
74 23
74 3
73 8750
73 7134
73 4169
73 2213
73 1393
73 1226
73 19
73 8
73 4
72 9935
72 9917
72 9573
72 9202
72 8887
72 8570
72 8488
72 8362
72 8290
72 7974
72 7911
72 7814
72 7784
72 7638
72 7432
72 7421
72 7298
72 7253
72 6843
72 6692
72 6611
72 6597
72 6493
72 6379
72 6311
72 6160
72 5998
72 5865
72 5770
72 5724
72 5539
72 5374
72 5044
72 4927
72 4828
72 4542
72 4534
72 4393
72 4366
72 4198
72 4066
72 3989
72 3829
72 3812
72 3741
72 3658
72 3586
72 3516
72 3359
72 3113
72 3107
72 3094
72 2982
72 2813
72 2769
72 2768
72 2516
72 2348
72 2324
72 2201
72 2199
72 1818
72 1754
72 1733
72 1713
72 1660
72 1166
72 1007
72 984
72 805
72 713
72 563
72 542
72 469
72 429
72 406
72 397
72 373
72 358
72 356
72 336
72 222
72 213
72 82
72 81
72 42
72 11
72 2
71 9530
71 8220
71 8129
71 7289
71 5725
71 5383
71 4005
71 3674
71 1840
71 1283
71 1266
71 617
71 314
71 238
71 33
71 7
71 6
70 8096
70 4307
70 3542
70 3505
70 3261
70 2722
70 2378
70 1441
70 1196
70 1194
70 1153
70 978
70 245
70 19
70 7
70 5
69 9482
69 9138
69 8892
69 8548
69 8007
69 7803
69 7432
69 7085
69 6070
69 5956
69 5864
69 5718
69 5075
69 4794
69 4733
69 4000
69 3904
69 3887
69 3698
69 3418
69 3164
69 3162
69 3126
69 2528
69 2140
69 2076
69 2023
69 1913
69 1442
69 1382
69 1187
69 1035
69 649
69 592
69 449
69 427
69 377
69 376
69 342
69 302
69 294
69 213
69 194
69 5
69 2
69 1
68 9674
68 9274
68 8372
68 8295
68 5246
68 4853
68 4773
68 4714
68 3908
68 3597
68 2958
68 2837
68 2092
68 1380
68 1148
68 1033
68 959
68 923
68 689
68 243
68 118
68 90
68 28
68 20
68 13
67 9762
67 7212
67 7196
67 6964
67 5521
67 5354
67 5236
67 4126
67 3253
67 3139
67 1960
67 1896
67 1802
67 1646
67 1541
67 1455
67 1053
67 995
67 167
67 164
67 43
67 28
67 7
66 8743
66 5133
66 3854
66 3356
66 3039
66 1771
66 1710
66 1384
66 1321
66 1254
66 740
66 309
66 197
66 161
66 113
66 31
66 6
66 0
65 8709
65 7842
65 7631
65 5632
65 5283
65 5204
65 4624
65 4402
65 3897
65 3509
65 3371
65 3184
65 3132
65 2343
65 2325
65 2320
65 2291
65 1969
65 1767
65 1444
65 1290
65 1020
65 876
65 843
65 573
65 385
65 379
65 332
65 123
65 117
65 95
65 46
65 16
65 5
64 9930
64 8776
64 8330
64 7918
64 7863
64 7284
64 6840
64 5656
64 5214
64 4162
64 3859
64 2423
64 2384
64 1774
64 1724
64 1548
64 692
64 50
64 37
64 4
63 9975
63 9700
63 9486
63 8723
63 8698
63 8540
63 8383
63 7522
63 7363
63 7030
63 6765
63 6298
63 6217
63 5633
63 4940
63 4707
63 3832
63 3097
63 2928
63 2718
63 2106
63 2096
63 1998
63 1789
63 1655
63 1531
63 1420
63 1295
63 1254
63 1235
63 1025
63 995
63 979
63 896
63 624
63 617
63 566
63 480
63 410
63 392
63 338
63 275
63 257
63 147
63 43
63 7
63 2
62 9825
62 9651
62 9256
62 7992
62 5054
62 4395
62 1679
62 1063
62 264
62 162
62 88
62 58
62 27
62 4
61 9931
61 8446
61 8335
61 7909
61 7774
61 7464
61 7234
61 6710
61 6679
61 6230
61 6044
61 5484
61 4547
61 4427
61 4116
61 3931
61 3881
61 3866
61 3667
61 3646
61 3569
61 3360
61 3188
61 3182
61 3108
61 2455
61 1863
61 1583
61 1425
61 1297
61 1272
61 715
61 660
61 598
61 440
61 402
61 390
61 318
61 275
61 271
61 219
61 186
61 59
61 52
61 23
60 9461
60 9082
60 8935
60 8820
60 8622
60 8332
60 7198
60 6816
60 6798
60 5078
60 4908
60 4808
60 3781
60 3563
60 3500
60 3183
60 2853
60 2566
60 2351
60 2028
60 1886
60 1312
60 1220
60 1034
60 941
60 932
60 831
60 715
60 556
60 519
60 447
60 328
60 180
60 152
60 111
60 54
60 46
60 7
59 9870
59 9536
59 9408
59 8198
59 7887
59 7204
59 7106
59 7013
59 6938
59 6904
59 6062
59 5922
59 5819
59 5196
59 4885
59 4840
59 4700
59 4491
59 3368
59 3103
59 2911
59 2662
59 2561
59 2494
59 2234
59 1395
59 1246
59 900
59 883
59 755
59 707
59 697
59 678
59 381
59 252
59 111
59 61
59 41
59 26
59 12
58 8819
58 8579
58 6477
58 6231
58 5361
58 5286
58 5151
58 2753
58 2476
58 2190
58 1601
58 1547
58 1509
58 1240
58 1162
58 992
58 796
58 508
58 507
58 427
58 202
58 187
58 164
58 62
58 11
58 9
58 6
57 9714
57 8732
57 8242
57 7537
57 7063
57 6804
57 6431
57 6181
57 5857
57 5807
57 5678
57 5269
57 4718
57 4504
57 4078
57 3814
57 3792
57 3756
57 3705
57 2663
57 2597
57 2527
57 2251
57 2207
57 2138
57 1943
57 1685
57 1528
57 1191
57 1091
57 979
57 971
57 864
57 858
57 289
57 44
57 17
57 2
56 9769
56 9070
56 8443
56 6835
56 6818
56 6599
56 6536
56 1684
56 26
56 23
56 7
55 9790
55 9655
55 9622
55 9605
55 9409
55 9337
55 9193
55 9192
55 8978
55 8908
55 8866
55 7954
55 7683
55 7620
55 7503
55 7355
55 7333
55 7007
55 6997
55 6729
55 6664
55 6530
55 6482
55 6177
55 5935
55 5890
55 5737
55 5551
55 5222
55 5050
55 4212
55 4117
55 4026
55 3954
55 3835
55 3774
55 3700
55 3512
55 3283
55 3241
55 3222
55 3160
55 3081
55 3056
55 2875
55 2790
55 2695
55 2671
55 2348
55 1973
55 1944
55 1800
55 1752
55 1697
55 1630
55 1627
55 1513
55 1511
55 1500
55 1432
55 1302
55 1085
55 1047
55 972
55 933
55 909
55 851
55 766
55 662
55 636
55 596
55 508
55 468
55 421
55 375
55 350
55 278
55 262
55 242
55 227
55 199
55 161
55 146
55 141
55 136
55 83
55 38
55 7
55 1
54 8745
54 7003
54 6102
54 4822
54 3829
54 3452
54 2902
54 2526
54 2506
54 2501
54 1391
54 1057
54 642
54 446
54 266
54 60
54 50
54 7
54 0
53 8589
53 6879
53 6618
53 5018
53 4947
53 4397
53 3825
53 3772
53 3227
53 2454
53 2347
53 2311
53 2040
53 1766
53 1765
53 1476
53 1170
53 809
53 599
53 394
53 357
53 181
53 126
53 46
53 37
53 9
52 9918
52 9771
52 9725
52 9688
52 9085
52 8367
52 8094
52 7937
52 7888
52 7561
52 7181
52 6977
52 6852
52 6665
52 6500
52 6091
52 5920
52 5848
52 5744
52 5322
52 5226
52 5176
52 5027
52 4912
52 4902
52 4658
52 4555
52 4491
52 4426
52 4358
52 4280
52 4263
52 4077
52 3552
52 3537
52 3378
52 3359
52 3311
52 3234
52 3063
52 3011
52 2968
52 2903
52 2368
52 2267
52 2166
52 1717
52 1643
52 1625
52 1510
52 1424
52 1106
52 988
52 840
52 691
52 670
52 655
52 606
52 598
52 570
52 518
52 299
52 273
52 242
52 112
52 110
52 99
52 61
52 26
52 23
52 6
51 9641
51 8412
51 8051
51 6668
51 6360
51 5276
51 4784
51 4758
51 4625
51 4396
51 4240
51 3796
51 3793
51 3752
51 3634
51 3513
51 3050
51 1618
51 1449
51 1204
51 824
51 811
51 678
51 668
51 646
51 635
51 479
51 214
51 209
51 171
51 133
51 126
51 23
51 10
51 9
50 9919
50 9783
50 8948
50 8712
50 8580
50 7704
50 7579
50 7564
50 7532
50 7182
50 6796
50 6699
50 5923
50 5531
50 5186
50 5100
50 4503
50 4314
50 4060
50 4053
50 3978
50 3792
50 3670
50 3124
50 2726
50 2656
50 2655
50 2611
50 2113
50 2024
50 1965
50 1942
50 1578
50 1534
50 1515
50 1422
50 1364
50 1279
50 1159
50 800
50 708
50 583
50 550
50 536
50 326
50 306
50 149
50 144
50 98
50 77
50 64
50 54
50 27
50 7
50 3
49 9817
49 9434
49 8837
49 7037
49 6900
49 6876
49 6625
49 5731
49 5420
49 5009
49 4489
49 4433
49 4345
49 3516
49 3102
49 2956
49 2889
49 2814
49 2274
49 2252
49 2200
49 1312
49 1102
49 1068
49 1011
49 696
49 603
49 546
49 391
49 321
49 228
49 140
49 128
49 79
49 78
49 35
49 18
49 9
48 9834
48 7760
48 7525
48 6350
48 6279
48 6087
48 5315
48 5180
48 5066
48 4891
48 4778
48 3438
48 2294
48 2141
48 1253
48 604
48 531
48 508
48 437
48 389
48 385
48 200
48 23
48 20
48 2
47 9793
47 9049
47 8615
47 5130
47 4817
47 4539
47 4422
47 4064
47 3584
47 3535
47 2758
47 1963
47 1800
47 1489
47 1278
47 1078
47 1060
47 1056
47 615
47 609
47 408
47 142
47 19
47 14
47 2
46 9983
46 9887
46 9839
46 9734
46 9534
46 9451
46 9024
46 8435
46 8274
46 7811
46 7766
46 7564
46 7460
46 6521
46 6301
46 5595
46 5506
46 5187
46 4924
46 4692
46 4669
46 4635
46 4396
46 4244
46 4091
46 3843
46 3812
46 3679
46 3615
46 3547
46 3459
46 3342
46 2869
46 2804
46 2645
46 2643
46 2448
46 2354
46 2233
46 2229
46 2183
46 2153
46 2151
46 2094
46 1989
46 1784
46 1760
46 1683
46 1618
46 1524
46 1468
46 1437
46 1371
46 1284
46 1269
46 1255
46 1234
46 1171
46 1106
46 991
46 828
46 759
46 757
46 647
46 631
46 622
46 530
46 512
46 353
46 349
46 271
46 216
46 171
46 151
46 65
46 60
46 53
46 44
46 43
46 13
45 9881
45 9132
45 8205
45 7973
45 7951
45 7868
45 7810
45 7802
45 7481
45 7191
45 7111
45 6944
45 6719
45 5850
45 5486
45 5304
45 5233
45 5143
45 5056
45 4734
45 4316
45 4275
45 4213
45 4162
45 4151
45 4050
45 3885
45 3625
45 3444
45 3414
45 3369
45 3227
45 3165
45 3034
45 2914
45 2894
45 2632
45 2618
45 2581
45 2478
45 2440
45 2277
45 2203
45 2147
45 2142
45 2113
45 2023
45 2010
45 2002
45 1970
45 1859
45 1848
45 1818
45 1617
45 1596
45 1551
45 1486
45 1471
45 1275
45 1274
45 1258
45 1156
45 1137
45 1052
45 997
45 960
45 913
45 905
45 888
45 850
45 746
45 732
45 726
45 695
45 609
45 517
45 383
45 304
45 302
45 295
45 247
45 234
45 228
45 162
45 153
45 146
45 128
45 102
45 11
45 7
45 4
44 9418
44 9316
44 9227
44 9176
44 9038
44 8997
44 8803
44 8255
44 7663
44 7615
44 7195
44 6930
44 6856
44 6376
44 6182
44 6055
44 6049
44 4920
44 4825
44 4759
44 4612
44 4346
44 4159
44 4125
44 3888
44 2188
44 2117
44 1394
44 968
44 904
44 852
44 775
44 689
44 649
44 648
44 376
44 269
44 258
44 144
44 86
44 75
44 57
44 46
44 43
44 20
44 18
43 9814
43 9614
43 9080
43 8360
43 8211
43 7938
43 7454
43 7240
43 6875
43 6602
43 6388
43 6021
43 5914
43 5488
43 5141
43 5065
43 5018
43 4955
43 4448
43 4275
43 3934
43 3651
43 3223
43 3084
43 2979
43 2926
43 2910
43 2416
43 2299
43 1562
43 1264
43 1253
43 1241
43 1240
43 1110
43 815
43 812
43 771
43 697
43 666
43 623
43 585
43 568
43 550
43 481
43 373
43 340
43 205
43 199
43 134
43 93
43 67
43 63
43 46
43 44
43 14
43 13
43 10
42 9446
42 8865
42 7679
42 7104
42 6393
42 6195
42 5080
42 4398
42 3972
42 3612
42 3432
42 2797
42 2795
42 2418
42 2045
42 1565
42 1388
42 1050
42 830
42 635
42 613
42 556
42 455
42 351
42 240
42 201
42 179
42 148
42 72
42 12
42 10
42 0
41 9775
41 9518
41 9334
41 8561
41 8418
41 8386
41 8366
41 8231
41 8230
41 7929
41 7884
41 7826
41 7665
41 7215
41 7211
41 7096
41 6097
41 6095
41 5889
41 5796
41 5131
41 5128
41 4794
41 4590
41 4472
41 4328
41 4209
41 4116
41 3969
41 3555
41 3388
41 2992
41 2836
41 2152
41 2047
41 2037
41 1706
41 1265
41 961
41 952
41 860
41 821
41 757
41 756
41 510
41 442
41 371
41 291
41 275
41 269
41 260
41 117
41 74
41 59
41 26
41 14
41 6
40 5118
40 4727
40 2008
40 1984
40 26
40 10
40 0
39 8949
39 8385
39 7790
39 7233
39 7025
39 6886
39 6331
39 6005
39 5508
39 5390
39 5387
39 5362
39 5334
39 5081
39 4742
39 4217
39 4135
39 4092
39 3905
39 3385
39 3203
39 3062
39 3012
39 1876
39 1861
39 1642
39 1477
39 1447
39 1360
39 1265
39 1161
39 826
39 811
39 424
39 423
39 350
39 271
39 172
39 32
39 28
39 27
38 9996
38 9871
38 9270
38 9186
38 8838
38 8337
38 8229
38 8120
38 8028
38 7532
38 7443
38 7377
38 6415
38 6133
38 5917
38 5522
38 5143
38 5103
38 5030
38 4915
38 4914
38 4254
38 4041
38 3743
38 3591
38 3459
38 3235
38 3195
38 3148
38 3047
38 3008
38 2831
38 2660
38 2254
38 1832
38 1681
38 1574
38 1566
38 1505
38 1371
38 1226
38 1206
38 1088
38 1065
38 977
38 776
38 639
38 568
38 395
38 389
38 319
38 223
38 168
38 160
38 55
38 7
38 6
38 0
37 9368
37 9340
37 8788
37 8446
37 8443
37 8096
37 8045
37 7684
37 7647
37 7642
37 6452
37 6451
37 6404
37 6283
37 6017
37 5626
37 5615
37 5555
37 5499
37 5424
37 5397
37 4944
37 4827
37 4771
37 4298
37 4066
37 3973
37 3780
37 3687
37 3670
37 3491
37 3324
37 2772
37 2761
37 2428
37 2411
37 2264
37 2211
37 2093
37 2052
37 1991
37 1953
37 1861
37 1781
37 1578
37 1528
37 1521
37 1514
37 1495
37 1485
37 1389
37 1381
37 1347
37 1276
37 1087
37 1070
37 1064
37 925
37 831
37 803
37 741
37 620
37 608
37 539
37 524
37 403
37 362
37 356
37 321
37 181
37 151
37 108
37 105
37 104
37 64
37 53
37 36
37 11
37 2
36 9973
36 9432
36 9130
36 7474
36 7425
36 7178
36 6539
36 6402
36 5324
36 4252
36 3913
36 2338
36 2089
36 1419
36 1351
36 1193
36 904
36 614
36 597
36 546
36 471
36 261
36 37
36 30
36 19
36 7
35 9879
35 9835
35 9798
35 9741
35 8899
35 8452
35 8222
35 7840
35 7536
35 7341
35 7279
35 7151
35 5469
35 5421
35 5013
35 4990
35 4718
35 3985
35 3711
35 3247
35 3212
35 2716
35 2609
35 2493
35 2016
35 1924
35 1467
35 1437
35 1069
35 1042
35 916
35 660
35 594
35 555
35 288
35 263
35 117
35 100
35 77
35 49
35 33
35 27
35 9
34 9237
34 7863
34 7478
34 7313
34 6478
34 5612
34 4983
34 4787
34 4480
34 4248
34 3655
34 3654
34 2749
34 2553
34 2356
34 2220
34 1506
34 1209
34 1116
34 1009
34 957
34 467
34 449
34 367
34 291
34 217
34 80
34 28
34 23
34 0
33 9907
33 9862
33 9305
33 8999
33 8996
33 8291
33 8213
33 8070
33 8029
33 7839
33 7714
33 7650
33 7418
33 7261
33 7148
33 7145
33 7136
33 7073
33 7030
33 6747
33 6609
33 6474
33 6406
33 6273
33 6173
33 5983
33 5858
33 5732
33 5294
33 5255
33 5247
33 5153
33 5091
33 4645
33 4579
33 4538
33 4391
33 4289
33 4221
33 4186
33 4120
33 3948
33 3869
33 3549
33 3360
33 3307
33 3288
33 3121
33 3098
33 3041
33 2876
33 2856
33 2812
33 2721
33 2605
33 2589
33 2315
33 2074
33 2050
33 1816
33 1647
33 1549
33 1285
33 1189
33 1038
33 816
33 787
33 764
33 750
33 745
33 725
33 686
33 667
33 557
33 548
33 453
33 418
33 409
33 327
33 294
33 263
33 254
33 237
33 222
33 208
33 192
33 184
33 182
33 130
33 112
33 110
33 100
33 90
33 82
33 76
33 71
33 35
33 28
33 13
33 4
32 9541
32 9238
32 9106
32 8953
32 7954
32 7724
32 6229
32 5850
32 5264
32 3614
32 3554
32 3465
32 3296
32 3216
32 3076
32 3009
32 2696
32 2650
32 2497
32 2494
32 2480
32 2135
32 2130
32 2104
32 2089
32 1979
32 1550
32 1535
32 1434
32 1342
32 1280
32 1252
32 1251
32 1096
32 736
32 668
32 478
32 421
32 384
32 284
32 259
32 230
32 215
32 104
32 80
32 39
32 23
32 7
32 4
31 9716
31 7641
31 6868
31 5427
31 4832
31 4508
31 3680
31 3643
31 3266
31 3024
31 2504
31 2469
31 2263
31 2144
31 1651
31 1340
31 1303
31 1266
31 935
31 767
31 700
31 664
31 619
31 539
31 427
31 406
31 261
31 227
31 160
31 121
31 85
31 66
31 30
31 15
31 3
30 9818
30 9579
30 8699
30 8380
30 8294
30 8027
30 7790
30 6985
30 6694
30 6543
30 6334
30 6238
30 6021
30 6002
30 5926
30 5575
30 5386
30 5212
30 4850
30 4739
30 4525
30 4371
30 4343
30 4339
30 4161
30 3920
30 3767
30 3120
30 3080
30 3046
30 2401
30 2295
30 2202
30 1989
30 1865
30 1575
30 1323
30 1170
30 1113
30 1090
30 909
30 894
30 828
30 792
30 770
30 690
30 671
30 634
30 580
30 547
30 538
30 410
30 386
30 382
30 260
30 215
30 198
30 169
30 167
30 131
30 114
30 36
30 31
30 28
30 11
30 7
29 9937
29 7563
29 7500
29 7347
29 7338
29 7182
29 6891
29 6832
29 6569
29 6227
29 5963
29 5719
29 5277
29 5269
29 4530
29 3858
29 3182
29 3053
29 2827
29 2718
29 2599
29 2479
29 2084
29 2064
29 1879
29 1833
29 1711
29 1610
29 1463
29 1376
29 1227
29 1136
29 1121
29 1035
29 898
29 831
29 802
29 523
29 402
29 378
29 373
29 203
29 202
29 176
29 150
29 84
29 28
29 26
29 10
28 9839
28 9329
28 9259
28 8687
28 8613
28 8591
28 8199
28 8122
28 7579
28 7110
28 7033
28 6797
28 6584
28 6097
28 6091
28 6061
28 5993
28 5738
28 5660
28 5407
28 5175
28 4924
28 4905
28 4810
28 4542
28 3949
28 3827
28 3812
28 3640
28 3332
28 2815
28 2774
28 2615
28 2425
28 2328
28 2293
28 2235
28 2198
28 2154
28 1929
28 1799
28 1790
28 1767
28 1741
28 1107
28 976
28 973
28 898
28 773
28 729
28 716
28 698
28 664
28 650
28 617
28 606
28 554
28 418
28 375
28 354
28 334
28 305
28 291
28 267
28 259
28 246
28 241
28 236
28 190
28 156
28 140
28 127
28 124
28 123
28 85
28 83
28 68
28 67
28 39
28 34
28 33
28 30
28 29
28 20
28 11
28 2
27 9923
27 9889
27 9670
27 9395
27 9357
27 9219
27 9153
27 9035
27 8859
27 8767
27 8467
27 8257
27 7694
27 7392
27 7379
27 7074
27 7038
27 6977
27 6532
27 6210
27 6187
27 5974
27 5962
27 5958
27 5849
27 5821
27 5784
27 5689
27 5452
27 5229
27 4768
27 4677
27 4591
27 4381
27 4067
27 3999
27 3990
27 3885
27 3863
27 3822
27 3656
27 3519
27 3380
27 3264
27 3207
27 3088
27 2817
27 2498
27 2341
27 2333
27 2161
27 1896
27 1792
27 1342
27 1297
27 1230
27 1166
27 1080
27 804
27 762
27 709
27 661
27 589
27 571
27 481
27 384
27 256
27 251
27 244
27 190
27 153
27 143
27 119
27 75
27 62
27 50
27 39
27 35
27 26
27 23
27 7
26 9908
26 9681
26 9675
26 9541
26 9206
26 8414
26 8295
26 8200
26 8060
26 7972
26 7926
26 7519
26 7102
26 7050
26 6851
26 6791
26 6732
26 6425
26 5639
26 5590
26 5538
26 5503
26 4910
26 4880
26 4781
26 4529
26 4278
26 4255
26 4105
26 3956
26 3948
26 3830
26 3815
26 3726
26 3716
26 3694
26 3667
26 3575
26 3563
26 3259
26 3252
26 3081
26 2928
26 2743
26 2738
26 2531
26 2472
26 2098
26 1943
26 1851
26 1794
26 1781
26 1655
26 1573
26 1488
26 1479
26 1424
26 1394
26 1343
26 1271
26 1224
26 1145
26 1072
26 1057
26 928
26 910
26 842
26 825
26 680
26 610
26 604
26 544
26 525
26 511
26 506
26 468
26 459
26 425
26 415
26 303
26 299
26 283
26 212
26 189
26 179
26 150
26 59
26 56
26 52
26 41
26 40
26 29
26 27
26 9
26 6
26 4
25 9443
25 7155
25 6271
25 5425
25 5088
25 3910
25 2965
25 1303
25 441
25 396
25 313
25 294
25 205
25 157
25 118
25 86
25 24
25 23
25 12
24 9930
24 9843
24 9746
24 8179
24 7976
24 5820
24 5708
24 5501
24 4536
24 4479
24 3862
24 3739
24 2969
24 2869
24 2672
24 2063
24 1768
24 1650
24 1040
24 920
24 893
24 704
24 535
24 482
24 338
24 163
24 25
24 15
24 12
24 7
23 9658
23 9596
23 9581
23 9572
23 9424
23 8839
23 8720
23 8686
23 8581
23 8573
23 8388
23 8383
23 8225
23 8100
23 7828
23 7822
23 7749
23 7599
23 7504
23 7327
23 7210
23 7114
23 7041
23 6982
23 6902
23 6430
23 6249
23 6124
23 5992
23 5766
23 5716
23 5691
23 5263
23 5246
23 5231
23 5210
23 5138
23 4680
23 4602
23 4573
23 4539
23 4334
23 4330
23 4316
23 4251
23 4207
23 4148
23 4079
23 4049
23 3919
23 3874
23 3525
23 3402
23 3353
23 3238
23 3236
23 3143
23 2799
23 2738
23 2693
23 2638
23 2250
23 2208
23 2205
23 2162
23 2141
23 1964
23 1934
23 1916
23 1888
23 1720
23 1603
23 1467
23 1386
23 1335
23 1273
23 1127
23 1101
23 927
23 922
23 908
23 866
23 770
23 749
23 711
23 690
23 684
23 630
23 627
23 620
23 577
23 572
23 567
23 521
23 489
23 462
23 406
23 399
23 253
23 236
23 145
23 135
23 127
23 97
23 76
23 74
23 61
23 56
23 52
23 51
23 48
23 34
23 32
23 27
23 25
23 11
23 8
23 4
22 8146
22 7854
22 7002
22 6996
22 6659
22 5620
22 5208
22 4837
22 2534
22 2517
22 1498
22 210
22 113
22 15
22 11
22 7
21 9245
21 8733
21 8243
21 6742
21 6302
21 6098
21 4584
21 4559
21 2446
21 1713
21 1035
21 907
21 387
21 104
21 17
21 14
21 0
20 9968
20 9407
20 9072
20 8506
20 8274
20 7991
20 7907
20 7667
20 7365
20 7223
20 6964
20 6937
20 6838
20 6713
20 6414
20 6089
20 6047
20 5350
20 5330
20 5198
20 5007
20 4892
20 4742
20 4680
20 4498
20 4383
20 4317
20 3971
20 3702
20 3435
20 3412
20 3399
20 3376
20 3373
20 3038
20 2923
20 2535
20 2035
20 1879
20 1709
20 1670
20 1615
20 1550
20 1516
20 1465
20 1422
20 1155
20 1135
20 817
20 745
20 719
20 474
20 360
20 348
20 138
20 131
20 94
20 92
20 78
20 68
20 48
20 44
20 28
20 3
20 2
20 0
19 9951
19 9772
19 9526
19 9422
19 9011
19 8989
19 8865
19 8666
19 8643
19 8194
19 7829
19 7701
19 7590
19 7456
19 7315
19 7293
19 7201
19 6914
19 6889
19 6791
19 6678
19 6480
19 6065
19 5958
19 5838
19 5716
19 5544
19 5501
19 5429
19 5298
19 5226
19 5139
19 5129
19 5045
19 4972
19 4780
19 4606
19 4593
19 4324
19 4174
19 4134
19 4127
19 4059
19 3799
19 3733
19 3673
19 3460
19 3398
19 3277
19 3173
19 3162
19 3069
19 2839
19 2684
19 2590
19 2577
19 2557
19 2456
19 2393
19 2270
19 2249
19 2056
19 1989
19 1858
19 1829
19 1673
19 1615
19 1522
19 1305
19 595
19 562
19 506
19 397
19 372
19 325
19 286
19 244
19 239
19 235
19 210
19 160
19 158
19 114
19 107
19 101
19 73
19 70
19 47
19 36
19 9
19 7
19 2
18 9931
18 8458
18 8391
18 8340
18 7808
18 7308
18 6655
18 6571
18 6494
18 6172
18 5939
18 5685
18 5559
18 5542
18 5439
18 5437
18 5194
18 5043
18 4926
18 4166
18 3734
18 3330
18 3274
18 3247
18 3040
18 2908
18 2799
18 2683
18 2568
18 2561
18 2546
18 2209
18 2181
18 2109
18 2079
18 1433
18 1428
18 1281
18 1119
18 955
18 866
18 658
18 557
18 510
18 436
18 392
18 335
18 272
18 214
18 180
18 138
18 89
18 49
18 44
18 16
18 9
18 0
17 9848
17 9275
17 8921
17 8792
17 8498
17 8372
17 8217
17 7947
17 7476
17 7144
17 7083
17 6821
17 5660
17 5629
17 5622
17 5597
17 5567
17 5338
17 5315
17 5146
17 4340
17 4253
17 4172
17 4103
17 4021
17 3874
17 3813
17 3800
17 3665
17 3104
17 3014
17 2598
17 2565
17 2295
17 2204
17 2152
17 2077
17 1913
17 1770
17 877
17 699
17 324
17 316
17 285
17 283
17 226
17 199
17 139
17 118
17 105
17 57
17 21
17 9
17 2
17 0
16 9862
16 9739
16 9489
16 9377
16 9222
16 8848
16 8646
16 8632
16 8365
16 8357
16 8305
16 7622
16 7571
16 7536
16 7506
16 6886
16 6403
16 6310
16 6287
16 6255
16 6234
16 6162
16 5956
16 5910
16 5852
16 5652
16 5518
16 5513
16 5008
16 4941
16 4506
16 4470
16 4378
16 4342
16 4292
16 3586
16 3531
16 3421
16 3250
16 3216
16 3195
16 2970
16 2942
16 2892
16 2703
16 2658
16 2610
16 2566
16 2323
16 2287
16 1908
16 1687
16 1546
16 1524
16 1512
16 1497
16 1424
16 1292
16 1146
16 1105
16 994
16 990
16 969
16 884
16 815
16 752
16 537
16 498
16 486
16 343
16 325
16 296
16 132
16 130
16 125
16 106
16 78
16 65
16 18
16 8
16 3
16 2
15 8720
15 7858
15 7822
15 7177
15 6847
15 6805
15 6502
15 6072
15 5794
15 5189
15 5167
15 5111
15 5043
15 3884
15 3144
15 3059
15 2872
15 2844
15 2838
15 2830
15 2796
15 2542
15 2293
15 2269
15 1728
15 1720
15 1625
15 1615
15 1540
15 1448
15 1404
15 1246
15 991
15 775
15 675
15 630
15 574
15 390
15 299
15 207
15 80
15 31
15 24
15 22
15 5
15 4
15 0
14 9580
14 9425
14 9345
14 9271
14 9194
14 9023
14 8993
14 8800
14 8784
14 8587
14 8586
14 8118
14 7977
14 7825
14 7533
14 7479
14 7401
14 7176
14 7074
14 7026
14 6866
14 6541
14 6470
14 6459
14 6445
14 6378
14 6236
14 6176
14 6087
14 6074
14 5989
14 5703
14 5658
14 5569
14 5314
14 4985
14 4731
14 4684
14 4631
14 4572
14 4494
14 4331
14 4200
14 4158
14 3909
14 3899
14 3810
14 3566
14 3482
14 3358
14 3194
14 3129
14 3044
14 2728
14 2596
14 2482
14 2303
14 2235
14 2216
14 2200
14 2116
14 2075
14 1780
14 1777
14 1691
14 1659
14 1647
14 1626
14 1600
14 1499
14 1409
14 1358
14 1351
14 1329
14 1299
14 1271
14 1246
14 1115
14 1111
14 1074
14 1018
14 985
14 957
14 938
14 886
14 870
14 864
14 758
14 594
14 522
14 513
14 417
14 386
14 367
14 359
14 334
14 281
14 249
14 236
14 235
14 229
14 146
14 102
14 98
14 47
14 43
14 41
14 21
14 9
14 5
14 4
13 9678
13 9645
13 9625
13 9402
13 9138
13 8728
13 6954
13 6702
13 6644
13 6573
13 6520
13 5621
13 5414
13 5262
13 5023
13 4754
13 4597
13 3962
13 3798
13 3278
13 3237
13 2974
13 2734
13 2177
13 2144
13 2061
13 1881
13 1766
13 1501
13 1364
13 1241
13 1111
13 1000
13 945
13 917
13 781
13 659
13 479
13 457
13 456
13 206
13 163
13 154
13 107
13 96
13 68
13 46
13 43
13 33
13 10
13 5
13 0
12 9680
12 9507
12 9495
12 9309
12 8882
12 8855
12 8714
12 8476
12 8380
12 8175
12 7849
12 7809
12 7483
12 7339
12 7303
12 7106
12 6836
12 6799
12 6465
12 6316
12 6214
12 6201
12 5887
12 5675
12 5544
12 5471
12 5344
12 5244
12 5122
12 5039
12 4681
12 4509
12 4452
12 4414
12 3957
12 3129
12 3113
12 2977
12 2727
12 2715
12 2666
12 2372
12 2370
12 2097
12 2081
12 1900
12 1868
12 1861
12 1564
12 1374
12 1231
12 1222
12 1037
12 978
12 957
12 924
12 916
12 906
12 851
12 846
12 634
12 566
12 535
12 525
12 502
12 485
12 414
12 332
12 211
12 187
12 156
12 123
12 82
12 59
12 42
12 25
12 24
12 11
12 7
12 3
11 9722
11 9686
11 9434
11 9330
11 9282
11 9062
11 8941
11 8831
11 8757
11 8604
11 8590
11 8588
11 7962
11 7799
11 7513
11 7093
11 7080
11 6722
11 6221
11 5673
11 5548
11 5369
11 5069
11 4589
11 4549
11 4452
11 4391
11 4297
11 4257
11 4137
11 4022
11 3963
11 3896
11 3866
11 3841
11 3822
11 3692
11 3597
11 3520
11 3212
11 3175
11 3153
11 3142
11 2836
11 2642
11 2580
11 2393
11 1944
11 1768
11 1703
11 1613
11 1560
11 1536
11 1529
11 1518
11 1516
11 1458
11 1345
11 1301
11 1283
11 1126
11 1102
11 1077
11 981
11 945
11 847
11 795
11 781
11 719
11 590
11 581
11 502
11 481
11 395
11 391
11 335
11 325
11 296
11 245
11 205
11 182
11 162
11 116
11 72
11 58
11 45
11 37
11 30
11 28
11 23
11 22
11 12
11 7
11 3
11 1
10 9898
10 9879
10 9808
10 9685
10 9544
10 9430
10 9227
10 8977
10 8684
10 8018
10 7973
10 7952
10 7721
10 7457
10 7015
10 6935
10 6669
10 6441
10 6277
10 6112
10 5728
10 5223
10 5110
10 4999
10 4653
10 4613
10 4570
10 4557
10 4538
10 4522
10 4403
10 4368
10 4202
10 4178
10 3945
10 3723
10 3632
10 3384
10 3326
10 3320
10 3293
10 3280
10 3263
10 2739
10 2601
10 2592
10 2365
10 2302
10 1922
10 1846
10 1782
10 1712
10 1669
10 1397
10 1365
10 1140
10 1086
10 1029
10 1007
10 962
10 899
10 801
10 628
10 607
10 555
10 554
10 499
10 471
10 462
10 409
10 317
10 308
10 276
10 273
10 239
10 138
10 137
10 122
10 51
10 43
10 42
10 40
10 29
10 13
10 6
10 5
10 4
9 9995
9 9904
9 9501
9 9451
9 9303
9 9218
9 9147
9 9020
9 8937
9 8876
9 8790
9 8691
9 8065
9 7972
9 7962
9 7785
9 7773
9 7053
9 6991
9 6763
9 6731
9 6579
9 6573
9 6567
9 6489
9 6434
9 6261
9 6124
9 6048
9 6022
9 5919
9 5745
9 5734
9 5710
9 5665
9 5632
9 5545
9 5535
9 5500
9 5444
9 5384
9 5108
9 5101
9 4916
9 4769
9 4679
9 4676
9 4608
9 4565
9 4543
9 4512
9 4501
9 4367
9 4277
9 4222
9 4164
9 4118
9 4100
9 4061
9 4020
9 4010
9 3898
9 3892
9 3836
9 3738
9 3680
9 3579
9 3574
9 3470
9 3170
9 3169
9 3092
9 3071
9 2995
9 2891
9 2790
9 2636
9 2345
9 2290
9 2250
9 2239
9 2237
9 2203
9 2191
9 2160
9 2122
9 2032
9 2023
9 1883
9 1864
9 1858
9 1688
9 1660
9 1642
9 1572
9 1496
9 1440
9 1430
9 1343
9 1203
9 1179
9 1096
9 1065
9 982
9 954
9 928
9 912
9 897
9 894
9 852
9 782
9 743
9 641
9 616
9 592
9 550
9 527
9 494
9 469
9 438
9 408
9 377
9 300
9 282
9 232
9 223
9 217
9 192
9 188
9 165
9 159
9 153
9 152
9 149
9 141
9 106
9 97
9 91
9 86
9 81
9 58
9 53
9 51
9 49
9 35
9 26
9 19
9 18
9 17
9 14
9 7
9 4
9 0
8 9391
8 8468
8 8119
8 8097
8 7839
8 7806
8 7544
8 6949
8 6117
8 5995
8 5914
8 5324
8 5039
8 4653
8 4306
8 4287
8 3386
8 2873
8 2677
8 2575
8 2114
8 1759
8 1744
8 1735
8 1673
8 1630
8 1610
8 1568
8 1560
8 1408
8 968
8 817
8 530
8 420
8 380
8 265
8 261
8 224
8 194
8 189
8 156
8 154
8 126
8 120
8 77
8 73
8 23
8 16
8 7
8 5
8 3
7 9938
7 9906
7 9796
7 9742
7 9570
7 9463
7 9458
7 9446
7 9383
7 9348
7 9310
7 9188
7 9148
7 8977
7 8899
7 8721
7 8712
7 8693
7 8608
7 8519
7 8489
7 8460
7 8444
7 8336
7 8249
7 8232
7 8211
7 8201
7 8140
7 8069
7 8047
7 8041
7 7978
7 7932
7 7914
7 7903
7 7886
7 7853
7 7736
7 7708
7 7695
7 7675
7 7665
7 7660
7 7611
7 7501
7 7437
7 7427
7 7378
7 7353
7 7274
7 7227
7 7201
7 7172
7 7169
7 7116
7 7107
7 7092
7 7053
7 7037
7 6977
7 6935
7 6926
7 6760
7 6691
7 6668
7 6631
7 6579
7 6562
7 6491
7 6486
7 6433
7 6359
7 6357
7 6164
7 6035
7 5786
7 5740
7 5689
7 5528
7 5494
7 5489
7 5476
7 5399
7 5393
7 5352
7 5310
7 5249
7 5221
7 5190
7 5153
7 5010
7 5003
7 4994
7 4989
7 4915
7 4681
7 4668
7 4627
7 4490
7 4482
7 4465
7 4429
7 4206
7 4184
7 4154
7 4102
7 4064
7 4039
7 4031
7 4010
7 3975
7 3939
7 3919
7 3915
7 3886
7 3882
7 3868
7 3835
7 3788
7 3765
7 3717
7 3592
7 3567
7 3559
7 3541
7 3538
7 3527
7 3500
7 3481
7 3471
7 3466
7 3435
7 3434
7 3335
7 3324
7 3257
7 3246
7 3167
7 3158
7 3126
7 3072
7 3048
7 3046
7 3007
7 2995
7 2976
7 2969
7 2951
7 2936
7 2919
7 2884
7 2832
7 2816
7 2790
7 2779
7 2700
7 2697
7 2665
7 2661
7 2510
7 2509
7 2500
7 2468
7 2396
7 2387
7 2355
7 2302
7 2295
7 2252
7 2247
7 2243
7 2239
7 2227
7 2184
7 2178
7 2143
7 2104
7 2088
7 2077
7 2058
7 2052
7 2041
7 2017
7 1910
7 1901
7 1890
7 1888
7 1884
7 1877
7 1871
7 1869
7 1827
7 1826
7 1775
7 1750
7 1723
7 1634
7 1632
7 1622
7 1577
7 1572
7 1554
7 1543
7 1493
7 1481
7 1427
7 1414
7 1405
7 1403
7 1391
7 1365
7 1328
7 1318
7 1304
7 1301
7 1296
7 1294
7 1293
7 1261
7 1221
7 1187
7 1186
7 1185
7 1172
7 1157
7 1102
7 1087
7 1076
7 1046
7 1031
7 1014
7 1008
7 1002
7 945
7 944
7 908
7 880
7 875
7 863
7 862
7 861
7 850
7 842
7 818
7 813
7 803
7 799
7 795
7 794
7 788
7 787
7 754
7 737
7 731
7 724
7 704
7 667
7 663
7 655
7 607
7 597
7 595
7 588
7 585
7 548
7 533
7 476
7 469
7 449
7 446
7 441
7 424
7 414
7 396
7 393
7 368
7 365
7 363
7 344
7 342
7 341
7 331
7 315
7 305
7 303
7 297
7 290
7 286
7 251
7 246
7 245
7 234
7 231
7 209
7 208
7 200
7 198
7 197
7 195
7 191
7 183
7 178
7 173
7 172
7 167
7 164
7 155
7 154
7 145
7 144
7 139
7 135
7 133
7 127
7 125
7 113
7 103
7 100
7 99
7 97
7 96
7 95
7 92
7 88
7 87
7 81
7 71
7 70
7 67
7 63
7 60
7 56
7 55
7 54
7 50
7 45
7 38
7 36
7 32
7 30
7 27
7 24
7 22
7 19
7 12
7 11
7 9
7 8
7 6
7 5
7 2
6 9820
6 9816
6 9562
6 9482
6 9101
6 9027
6 8885
6 8730
6 8574
6 8504
6 8478
6 8423
6 8310
6 7986
6 7974
6 7945
6 7942
6 7779
6 7747
6 7718
6 7655
6 7654
6 7558
6 7288
6 7160
6 7128
6 7032
6 6996
6 6880
6 6812
6 6774
6 6736
6 6660
6 6526
6 6415
6 6338
6 6154
6 6036
6 6025
6 5994
6 5973
6 5951
6 5919
6 5823
6 5787
6 5630
6 5305
6 5248
6 5206
6 4989
6 4987
6 4888
6 4785
6 4755
6 4741
6 4705
6 4690
6 4684
6 4611
6 4496
6 4326
6 4291
6 4286
6 4122
6 4010
6 3850
6 3802
6 3682
6 3635
6 3626
6 3625
6 3550
6 3442
6 3430
6 3364
6 3279
6 3260
6 3116
6 3103
6 3031
6 2988
6 2970
6 2930
6 2917
6 2850
6 2802
6 2798
6 2746
6 2697
6 2607
6 2578
6 2556
6 2541
6 2485
6 2461
6 2445
6 2428
6 2379
6 2321
6 2316
6 2234
6 2202
6 2145
6 2096
6 2093
6 2027
6 2025
6 2022
6 1899
6 1725
6 1612
6 1611
6 1585
6 1492
6 1429
6 1392
6 1287
6 1281
6 1242
6 1238
6 1215
6 1202
6 1156
6 1125
6 1085
6 1019
6 1012
6 944
6 941
6 924
6 895
6 878
6 833
6 784
6 755
6 753
6 732
6 693
6 641
6 575
6 573
6 514
6 443
6 413
6 386
6 361
6 337
6 333
6 310
6 249
6 193
6 184
6 157
6 136
6 101
6 96
6 93
6 91
6 79
6 76
6 71
6 66
6 58
6 52
6 41
6 38
6 26
6 10
6 7
6 5
6 3
6 0
5 9957
5 9864
5 9850
5 9650
5 9616
5 9281
5 9174
5 9161
5 9139
5 9124
5 9087
5 9052
5 9047
5 9032
5 9022
5 8676
5 8652
5 8604
5 8552
5 8505
5 8421
5 8323
5 8296
5 8267
5 8168
5 8138
5 8052
5 7993
5 7910
5 7901
5 7846
5 7800
5 7778
5 7775
5 7725
5 7616
5 7446
5 7435
5 7385
5 7321
5 7319
5 7168
5 7131
5 7076
5 7011
5 6931
5 6890
5 6846
5 6844
5 6836
5 6833
5 6831
5 6683
5 6617
5 6612
5 6422
5 6380
5 6330
5 6321
5 6304
5 6253
5 5998
5 5949
5 5879
5 5709
5 5612
5 5607
5 5534
5 5460
5 5384
5 5373
5 5220
5 4546
5 4533
5 4532
5 4522
5 4514
5 4431
5 4413
5 4406
5 4282
5 4280
5 4259
5 4193
5 4144
5 3927
5 3829
5 3575
5 3513
5 3467
5 3417
5 3370
5 3367
5 3275
5 3030
5 3029
5 2986
5 2973
5 2943
5 2831
5 2830
5 2806
5 2760
5 2698
5 2670
5 2640
5 2603
5 2579
5 2572
5 2552
5 2537
5 2205
5 2155
5 2151
5 2067
5 2027
5 1999
5 1914
5 1877
5 1715
5 1670
5 1605
5 1556
5 1398
5 1348
5 1326
5 1291
5 1288
5 1250
5 1232
5 1180
5 1174
5 1107
5 1103
5 995
5 962
5 961
5 944
5 902
5 865
5 854
5 822
5 797
5 764
5 738
5 728
5 653
5 599
5 585
5 564
5 528
5 526
5 497
5 495
5 484
5 473
5 456
5 448
5 435
5 434
5 376
5 351
5 341
5 336
5 310
5 289
5 280
5 274
5 264
5 243
5 242
5 233
5 210
5 193
5 178
5 177
5 175
5 152
5 134
5 95
5 70
5 69
5 65
5 15
5 14
5 13
5 10
5 8
5 7
5 6
5 4
5 3
5 0
4 9883
4 9749
4 9691
4 9618
4 9527
4 9321
4 9068
4 9061
4 8952
4 8767
4 8621
4 8587
4 8563
4 8264
4 8256
4 8223
4 8194
4 8035
4 8028
4 8025
4 7614
4 7387
4 7130
4 7069
4 7019
4 6933
4 6909
4 6757
4 6718
4 6658
4 6530
4 6527
4 6520
4 6489
4 6467
4 6272
4 6111
4 5777
4 5767
4 5743
4 5685
4 5571
4 5379
4 5282
4 5192
4 5147
4 5072
4 5070
4 5064
4 5010
4 4936
4 4935
4 4666
4 4578
4 4527
4 4437
4 4420
4 4304
4 4081
4 4050
4 4012
4 3814
4 3799
4 3742
4 3625
4 3532
4 3520
4 3475
4 3448
4 3419
4 3392
4 3276
4 3215
4 3128
4 3081
4 3073
4 3055
4 2980
4 2961
4 2918
4 2917
4 2849
4 2841
4 2765
4 2692
4 2660
4 2631
4 2573
4 2555
4 2430
4 2256
4 2213
4 2181
4 2150
4 2110
4 2082
4 2081
4 2067
4 2049
4 2034
4 1939
4 1854
4 1810
4 1804
4 1749
4 1718
4 1695
4 1690
4 1674
4 1606
4 1602
4 1591
4 1537
4 1513
4 1508
4 1500
4 1496
4 1492
4 1350
4 1310
4 1269
4 1224
4 1173
4 1170
4 1136
4 1134
4 1115
4 1079
4 1062
4 1056
4 1030
4 1006
4 1004
4 1002
4 974
4 968
4 964
4 963
4 961
4 930
4 901
4 897
4 854
4 810
4 788
4 786
4 762
4 718
4 681
4 633
4 605
4 600
4 580
4 575
4 560
4 514
4 499
4 475
4 467
4 461
4 405
4 369
4 344
4 323
4 314
4 309
4 306
4 301
4 285
4 226
4 222
4 206
4 202
4 174
4 173
4 147
4 142
4 139
4 136
4 129
4 119
4 115
4 108
4 106
4 103
4 89
4 85
4 84
4 83
4 73
4 64
4 62
4 45
4 33
4 32
4 26
4 23
4 15
4 14
4 10
4 9
4 5
4 3
4 1
4 0
3 9770
3 9428
3 9400
3 9376
3 9374
3 9067
3 8735
3 8721
3 8702
3 8486
3 8457
3 8265
3 7915
3 7873
3 7743
3 7525
3 7465
3 7348
3 7159
3 6884
3 6743
3 6617
3 6581
3 6442
3 6418
3 6398
3 6354
3 6285
3 6176
3 6155
3 6144
3 5959
3 5875
3 5558
3 5510
3 5480
3 5441
3 5358
3 5355
3 5352
3 5337
3 5038
3 4953
3 4943
3 4917
3 4749
3 4659
3 4610
3 4384
3 4252
3 4238
3 3947
3 3803
3 3779
3 3703
3 3671
3 3490
3 3446
3 3404
3 3401
3 3389
3 3314
3 3046
3 3022
3 3021
3 2991
3 2888
3 2821
3 2781
3 2741
3 2733
3 2669
3 2573
3 2486
3 2467
3 2433
3 2397
3 2352
3 2330
3 2197
3 2196
3 2127
3 2078
3 2064
3 1976
3 1972
3 1932
3 1926
3 1835
3 1770
3 1676
3 1653
3 1636
3 1624
3 1581
3 1539
3 1406
3 1337
3 1247
3 1243
3 1214
3 1213
3 1184
3 1179
3 1168
3 1101
3 1022
3 1014
3 1001
3 996
3 947
3 871
3 817
3 805
3 792
3 786
3 737
3 702
3 691
3 685
3 620
3 602
3 565
3 524
3 501
3 453
3 447
3 422
3 411
3 387
3 385
3 358
3 323
3 322
3 305
3 248
3 219
3 216
3 212
3 180
3 175
3 158
3 142
3 141
3 130
3 121
3 109
3 91
3 89
3 84
3 74
3 50
3 31
3 20
3 16
3 12
3 11
3 8
3 6
3 5
3 4
3 2
3 1
3 0
2 9920
2 9856
2 9735
2 9708
2 9480
2 9234
2 9171
2 9156
2 9073
2 9026
2 8742
2 8176
2 7919
2 7913
2 7546
2 7427
2 7342
2 7230
2 7207
2 7183
2 6656
2 6423
2 6365
2 6292
2 6251
2 6179
2 6066
2 5967
2 5870
2 5821
2 5589
2 5447
2 5440
2 5376
2 5180
2 4958
2 4921
2 4875
2 4795
2 4701
2 4657
2 4654
2 4587
2 4490
2 4486
2 4369
2 4354
2 4318
2 4198
2 4183
2 4052
2 4033
2 4003
2 3931
2 3768
2 3718
2 3701
2 3681
2 3621
2 3443
2 3389
2 3265
2 3261
2 3097
2 2806
2 2706
2 2677
2 2646
2 2624
2 2553
2 2439
2 2437
2 2326
2 2277
2 2242
2 2046
2 1986
2 1980
2 1934
2 1893
2 1876
2 1845
2 1752
2 1638
2 1614
2 1522
2 1382
2 1327
2 1247
2 1207
2 1157
2 1086
2 1059
2 979
2 898
2 890
2 889
2 764
2 738
2 727
2 719
2 702
2 663
2 656
2 639
2 637
2 616
2 584
2 558
2 531
2 484
2 470
2 450
2 447
2 440
2 432
2 423
2 367
2 322
2 308
2 302
2 301
2 287
2 257
2 232
2 183
2 171
2 115
2 108
2 79
2 72
2 69
2 63
2 57
2 48
2 47
2 37
2 28
2 20
2 19
2 17
2 16
2 7
2 3
2 1
2 0
1 9521
1 9401
1 9278
1 9266
1 8853
1 8289
1 8287
1 8197
1 7975
1 7557
1 7410
1 7179
1 7154
1 7044
1 6531
1 6433
1 6325
1 6086
1 5866
1 5704
1 5682
1 5502
1 5465
1 5280
1 5142
1 5017
1 4944
1 4938
1 4897
1 4776
1 4570
1 4441
1 4236
1 3846
1 3823
1 3743
1 3466
1 3051
1 2751
1 2737
1 2723
1 2634
1 2611
1 2381
1 2366
1 2363
1 2291
1 2273
1 2267
1 2095
1 1949
1 1930
1 1834
1 1755
1 1753
1 1639
1 1608
1 1505
1 1444
1 1439
1 1383
1 1382
1 1318
1 1271
1 1260
1 1076
1 1059
1 869
1 841
1 738
1 737
1 524
1 512
1 404
1 354
1 324
1 295
1 255
1 230
1 220
1 119
1 93
1 69
1 55
1 11
1 4
1 3
1 2
1 0
0 9991
0 9885
0 9788
0 9776
0 9754
0 9724
0 9616
0 9572
0 9460
0 9296
0 9172
0 9137
0 9059
0 9016
0 8897
0 8890
0 8826
0 8753
0 8734
0 8713
0 8632
0 8620
0 8595
0 8526
0 8500
0 8462
0 8424
0 8347
0 8227
0 8220
0 8180
0 8173
0 8140
0 8124
0 8016
0 7969
0 7862
0 7727
0 7704
0 7609
0 7590
0 7552
0 7433
0 7265
0 7097
0 7072
0 7066
0 7029
0 7011
0 6955
0 6826
0 6822
0 6770
0 6733
0 6707
0 6639
0 6574
0 6558
0 6499
0 6461
0 6452
0 6334
0 6308
0 6157
0 6019
0 5960
0 5957
0 5938
0 5827
0 5799
0 5700
0 5638
0 5613
0 5601
0 5586
0 5547
0 5524
0 5504
0 5476
0 5468
0 5460
0 5428
0 5419
0 5328
0 5260
0 5232
0 5106
0 5096
0 5001
0 4863
0 4851
0 4846
0 4736
0 4622
0 4606
0 4568
0 4546
0 4535
0 4524
0 4324
0 4311
0 4274
0 4260
0 4240
0 4196
0 4135
0 4132
0 4091
0 4066
0 3978
0 3912
0 3845
0 3837
0 3776
0 3729
0 3568
0 3515
0 3455
0 3414
0 3372
0 3365
0 3285
0 3201
0 3108
0 3089
0 3045
0 3020
0 3011
0 3003
0 3001
0 2955
0 2901
0 2887
0 2875
0 2844
0 2808
0 2751
0 2730
0 2721
0 2705
0 2698
0 2653
0 2576
0 2555
0 2502
0 2385
0 2213
0 2147
0 2124
0 2100
0 2096
0 2024
0 1993
0 1958
0 1953
0 1945
0 1894
0 1889
0 1829
0 1823
0 1802
0 1769
0 1753
0 1676
0 1656
0 1589
0 1585
0 1555
0 1534
0 1527
0 1525
0 1479
0 1460
0 1455
0 1445
0 1440
0 1387
0 1375
0 1353
0 1347
0 1337
0 1293
0 1291
0 1248
0 1238
0 1219
0 1208
0 1196
0 1167
0 1133
0 1088
0 1041
0 950
0 946
0 927
0 907
0 888
0 854
0 847
0 837
0 829
0 798
0 766
0 756
0 714
0 686
0 683
0 682
0 677
0 675
0 674
0 640
0 627
0 616
0 614
0 612
0 589
0 587
0 570
0 565
0 555
0 543
0 535
0 526
0 500
0 495
0 411
0 401
0 361
0 357
0 355
0 320
0 296
0 286
0 265
0 264
0 250
0 247
0 237
0 231
0 203
0 200
0 196
0 183
0 177
0 176
0 172
0 159
0 140
0 128
0 109
0 102
0 101
0 99
0 98
0 92
0 75
0 66
0 54
0 42
0 40
0 38
0 34
0 21
0 20
0 18
0 17
0 15
0 13
0 9
0 6
0 5
0 4
0 3
0 2
0 1