199914 199909
199909 199483
199483 199334
199334 199178
199178 199042
199042 198829
198829 198643
198643 198634
198634 198398
198398 198395
198395 197938
197938 197645
197645 197499
197499 197404
197404 196841
196841 196737
196737 196426
196426 196210
196210 194620
194620 194275
194275 193691
193691 193170
193170 192946
192983 148401
192946 192766
192766 192364
192364 192263
192263 192257
192257 191918
191918 191779
191779 191598
191598 191507
191507 191359
191359 191203
191203 191202
191202 190871
190871 190767
190767 190739
190739 190498
190498 190408
190408 190276
190276 189582
189582 189206
189206 189122
189122 188904
188905 49706
188904 188529
188529 188382
188398 171102
188382 187695
187695 187658
187658 187379
187379 187352
187352 187223
187223 187164
187164 187073
187073 186688
186688 186620
186620 186556
186606 68102
186556 185953
185953 185776
185776 185772
185772 185687
185687 185681
185681 185517
185517 185487
185487 185266
185266 185255
185255 185221
185221 185068
185068 184899
184899 184874
184874 184781
184781 184768
184768 184592
184592 184478
184478 184472
184472 184469
184469 184017
184017 183911
183911 183906
183906 183661
183661 183517
183517 183493
183493 183314
183314 183151
183151 183052
183110 116960
183052 183051
183051 183017
183017 182682
182682 182628
182628 182558
182558 182390
182390 182336
182336 182268
182268 182188
182188 182128
182128 181926
181926 181895
181895 181840
181840 181693
181693 181324
181324 180638
180638 180421
180421 180323
180323 179980
179980 179973
179973 179883
179883 179870
179870 179867
179867 179806
179806 179599
179599 179396
179396 179141
179141 179043
179043 179031
179031 178459
178459 178421
178421 178379
178379 178191
178191 177895
177895 177868
177868 177863
177863 177516
177516 177381
177381 177363
177363 177258
177258 176921
176921 176773
176773 176758
176758 176499
176499 176324
176324 176298
176298 176128
176128 176127
176127 176033
176107 144093
176033 175929
175929 175513
175513 175033
175033 174743
174991 155522
174991 111496
174743 174717
174717 174608
174608 174455
174455 174400
174400 174143
174267 143252
174143 174134
174134 174103
174103 174066
174078 171570
174066 173778
173778 173407
173407 173253
173253 173027
173027 173000
173000 172991
172991 172952
172952 172661
172661 172477
172477 172396
172396 171793
171793 171030
171570 51411
171102 167385
171102 135744
171030 170582
170582 169927
169927 169893
169893 169853
169853 169658
169658 169342
169342 168970
169148 108519
168970 168667
168667 168666
168666 168332
168332 167893
168195 60232
167893 167886
167886 167820
167820 167579
167579 167364
167385 158962
167364 166991
166991 166883
166883 166757
166757 166476
166476 166249
166249 166189
166189 165749
165749 165699
165699 165288
165288 164887
165177 162159
164887 164725
164725 164245
164245 164042
164042 164035
164035 163858
163858 163850
163850 163762
163762 163515
163515 163163
163163 163155
163155 162684
162684 162677
162677 162402
162402 162273
162273 162257
162257 162122
162164 36479
162159 151675
162159 63439
162122 161911
161911 161637
161637 161511
161511 161505
161505 161411
161411 161393
161393 160993
160993 160798
160798 160780
160780 160575
160575 160546
160546 160004
160004 159930
159930 159806
159806 159682
159682 159663
159663 159651
159651 159435
159435 159199
159199 158984
158984 158871
158962 145337
158871 158852
158852 158808
158808 158624
158624 158622
158622 158414
158414 158331
158331 158232
158232 158157
158157 158156
158156 158105
158105 158068
158068 157478
157478 157473
157473 157303
157303 156813
156813 156780
156780 156731
156731 156715
156715 156060
156060 155981
155981 155863
155863 155441
155522 81424
155441 155124
155124 154931
154931 154925
154925 154857
154857 154805
154805 154601
154653 104880
154601 154403
154403 154171
154171 153960
153960 153804
153804 153760
153760 153668
153668 153008
153293 104880
153008 152447
152447 152415
152415 152032
152032 152001
152001 151916
151916 151812
151812 151800
151800 151727
151727 151566
151675 104940
151675 84095
151566 151525
151525 151456
151456 151439
151439 151202
151202 150993
150993 150719
150719 150300
150300 150087
150087 149572
149572 149350
149350 149340
149340 149278
149278 148969
148969 148738
148738 148400
148401 56002
148400 148391
148391 148104
148104 148011
148011 147504
147504 147161
147161 146610
146788 110550
146610 146556
146556 146291
146291 146227
146227 146063
146063 146011
146011 145867
145867 145507
145507 145422
145422 145240
145337 141925
145240 145142
145142 144923
144923 144744
144744 144648
144648 144614
144614 144595
144595 144342
144342 144183
144183 143849
144093 76084
143849 143462
143462 143206
143252 47126
143252 26146
143206 142963
143013 43499
142963 142812
142812 142780
142780 141984
141984 141596
141925 140085
141596 141059
141059 140532
140532 140477
140477 140354
140354 140353
140353 140103
140103 140054
140085 126003
140054 139921
139921 139632
139632 139080
139080 138837
138837 138760
138760 138652
138652 138603
138603 138126
138126 137997
137997 137910
137910 137769
137769 137717
137717 137675
137675 137541
137541 137124
137124 136478
137075 174078
136478 136466
136466 135786
136163 134183
135786 135759
135759 135699
135744 100415
135699 135641
135641 135613
135613 135575
135575 135437
135437 135344
135344 135210
135210 135187
135187 134958
134958 134951
134951 134747
134747 134077
134183 78070
134183 51720
134077 133918
133918 133336
133336 132957
132957 132702
132943 56444
132702 132596
132596 132246
132246 131985
131985 131648
131648 131160
131250 73815
131160 131134
131134 131042
131042 130840
130840 130680
130680 130617
130617 130308
130308 130269
130284 97227
130269 130061
130061 129976
129976 129797
129797 129513
129513 129508
129508 129466
129466 129276
129276 129225
129225 129182
129182 129077
129077 128937
128937 128928
128928 128815
128815 128735
128735 128028
128028 127936
127936 127843
127843 127706
127706 127380
127380 127331
127331 127295
127295 127255
127255 126875
126003 122001
122001 112709
116960 83685
114337 199914
114255 109700
112709 91824
111496 151675
110550 51720
110087 84964
109700 73815
109372 104940
108519 104940
107149 61153
104940 168195
104940 109372
104940 81424
104940 65212
104940 14869
104880 114337
104880 49626
104880 7979
100415 76831
97227 87686
91824 71513
88597 134183
87686 74512
84964 50254
84095 132943
83685 174991
81424 80188
81424 59860
81424 51110
80188 136163
78070 104940
76831 68841
76084 169148
74512 51720
73815 188905
73815 5351
71513 15361
68841 8055
68102 143013
65212 21372
63439 162164
61153 12536
60232 50254
59860 88597
56444 45630
56002 25925
51720 130284
51720 48048
51720 18640
51411 47190
51110 33883
50254 49161
50254 47023
49706 81424
49626 47190
49161 42012
48048 37406
47190 104880
47190 37243
47126 146788
47023 14013
45630 186606
43499 31464
42012 104940
37406 24693
37243 153293
36479 183110
33883 19936
31464 192983
26146 143252
25925 176107
24693 107149
21372 7979
19936 114255
18640 154653
15361 3311
14869 174991
14013 110087
12536 6271
8055 174267
7979 188398
7979 165177
6271 137075
5351 3957
3957 50
3311 171102
50 131250