199483 102831
199483 26205
199435 69333
199435 34328
199370 24843
199294 179811
199294 140293
198793 102229
198740 17972
198645 190513
198645 168621
198645 92075
198645 78466
198645 16727
198645 14908
198645 4591
198537 5856
198123 177928
197959 77746
197938 189375
197938 21844
197771 96341
197413 73356
197073 90224
197073 48046
196738 83362
196738 55695
196738 35499
196738 19227
196471 123268
195851 24902
195747 166840
195747 144666
195747 97045
195599 49987
195599 8866
195591 184871
195591 183909
195591 174398
195591 146259
195591 136546
195591 127415
195591 126090
195591 121798
195591 120560
195591 107381
195591 90888
195591 68588
195591 59329
195591 43057
195591 39270
195591 24902
195591 7968
195591 5856
195518 99331
195025 116035
194947 174398
194891 127415
194891 123581
194891 111205
194891 107381
194891 52603
194891 39270
194891 19227
194891 3585
194700 123788
194633 176923
194203 179209
193893 34956
193893 2052
193827 103297
193785 16757
193087 96226
192983 199483
192983 197938
192983 197413
192983 196738
192983 194947
192983 191582
192983 189375
192983 187152
192983 184472
192983 181724
192983 179883
192983 179141
192983 178589
192983 178508
192983 178473
192983 176692
192983 174398
192983 172689
192983 157534
192983 151372
192983 149997
192983 149350
192983 146259
192983 145122
192983 144614
192983 140239
192983 139489
192983 137336
192983 136900
192983 136546
192983 130275
192983 129517
192983 129350
192983 127415
192983 127265
192983 126122
192983 126090
192983 126042
192983 125955
192983 125329
192983 123822
192983 122190
192983 121602
192983 121075
192983 121068
192983 111205
192983 109520
192983 109475
192983 107381
192983 106193
192983 102532
192983 97045
192983 96305
192983 93639
192983 90483
192983 90224
192983 89446
192983 88129
192983 85546
192983 83402
192983 82689
192983 81246
192983 80593
192983 80520
192983 78493
192983 70676
192983 70593
192983 68583
192983 56725
192983 54421
192983 49352
192983 43593
192983 42994
192983 42029
192983 40947
192983 39191
192983 38936
192983 34989
192983 32734
192983 32171
192983 30466
192983 29436
192983 27292
192983 26009
192983 25429
192983 22986
192983 20707
192983 20392
192983 20170
192983 18999
192983 15529
192983 14908
192983 14726
192983 7695
192983 6099
192983 3858
192983 3760
192983 3585
192983 2725
192983 1687
192840 116730
192739 135569
192739 111754
192230 109360
191582 192983
191582 90224
191486 111205
191486 54419
191486 19227
191486 7842
191272 76760
190889 116013
190575 71903
190513 198645
190513 183680
190513 176914
190513 92075
190205 69859
189677 186063
189677 149997
189677 139042
189677 83402
189677 54419
189677 16754
189677 11992
189677 2052
189375 74906
189375 62976
189071 51048
188959 162570
188938 108302
188376 176692
188376 70593
188032 17209
187491 59973
187152 187152
187152 122190
187152 70691
186917 29336
185859 104498
185426 70676
184895 106344
184871 108189
184597 70069
184472 129952
184472 109266
184332 100614
183897 109582
183897 100372
183680 190513
183680 92075
183209 31873
182901 108687
182901 52423
182659 147985
182217 20384
182207 177028
182207 127415
182207 107381
182207 2963
181724 167420
181724 129517
181724 106193
181724 78493
181724 56340
181682 127415
181682 107381
181682 101538
181682 75383
181682 66741
181682 50776
181682 5712
181682 3585
181225 83402
181144 126042
181109 133127
180985 199347
180985 1687
180931 133745
180573 106408
180350 198645
180350 189375
180350 141754
180350 127265
180350 126097
180350 123643
180350 122190
180350 121291
180350 100372
180350 85351
180350 50776
180350 42029
180350 40474
180350 35302
180350 30466
180350 26009
180350 17552
180350 11183
180350 3760
180350 2052
180051 166705
180028 46274
179883 192983
179883 130275
179883 125955
179883 121068
179883 109475
179883 46545
179883 38936
179883 27292
179883 24902
179883 20707
179883 18348
179883 17494
179883 13330
179811 199294
179811 140293
179213 39533
179211 102191
179211 59024
179209 194203
179209 66853
179141 3970
179141 3761
178650 80903
178589 192983
178589 146009
178589 45174
178508 172957
178508 109266
178473 96305
178415 26009
178133 108687
177928 198123
177928 111205
177530 158869
177028 182207
177028 9775
177028 5548
177028 2963
176944 9307
176914 190513
176914 168621
176914 154446
176914 79624
176914 16727
176692 188376
176330 95225
176039 47557
175401 78563
175268 37319
174719 78013
174719 30366
174398 194947
174369 52493
174084 98164
174084 84859
174084 77026
174084 61902
174084 3521
173628 5672
173567 102539
173106 136897
173106 52423
172957 178508
172957 167420
172957 83402
172689 133657
172633 133848
172633 118121
172633 111205
172633 29415
172633 23819
172633 12501
172096 147172
171754 171754
171754 38475
171566 114337
171566 58694
171040 161347
171038 78619
170872 4510
170463 64869
170463 40827
170363 137169
170363 23441
169920 12511
169849 150081
169849 129680
169849 127415
169849 110338
169849 107381
169849 76667
169849 75383
169849 5151
169458 184366
169402 35291
169086 115629
168847 145122
168847 40305
168621 198645
168621 176914
168621 153959
168621 92075
168621 85546
168621 4591
168437 109362
168101 64347
167420 181724
167420 172957
167420 151372
167420 129517
167420 106193
167420 83402
167420 78493
167420 2052
167372 3852
167259 136546
167259 45010
167259 43057
166840 195747
166840 123581
166782 17377
166779 138220
166705 180051
166227 18791
166145 8866
165739 195599
165739 49987
165739 8866
164645 49537
164642 132341
164354 187152
164354 153959
164354 141754
164354 121291
164354 118121
164354 117911
164354 112383
164354 103170
164354 98434
164354 89664
164354 81246
164354 56340
164354 27548
164354 26037
164354 26009
164354 5885
164354 3585
164354 2052
164297 123643
164036 146967
162987 18221
162627 22958
162586 48404
162570 188959
162075 48792
161356 148220
161347 171040
160900 159000
160788 17494
160563 56548
160192 75383
160192 24768
159944 93253
159471 127415
159471 121045
159471 107381
159117 21222
159109 49612
158877 111754
158877 83032
158578 84367
158553 88601
158224 191769
158224 132341
158224 30466
158224 29370
158205 61970
157889 122020
157889 29436
157782 135255
157534 198645
157534 192983
157534 188959
157534 151372
157534 122190
157534 109475
157534 78466
157534 52860
157534 40474
157534 38936
157534 32175
157534 19227
157534 2052
157389 105864
156070 191945
156070 146036
155960 54419
155960 20707
155960 19227
155960 16754
155960 7118
155881 136651
155597 127415
155597 107381
155597 104675
155597 9775
155130 59094
154737 25937
154540 121798
154446 176914
154446 52906
154129 16330
153959 168621
153959 21224
153312 143528
153312 56283
153312 51480
153312 38936
153312 5856
152944 113132
152572 13813
152536 35302
151982 155439
151982 50095
151443 14726
151372 192983
151372 179141
151372 174398
151372 167420
151372 157534
151372 126122
151372 109520
151372 103846
151372 78493
151372 49352
151372 40947
151372 26009
151372 14726
151330 109259
151330 54419
151330 24902
150081 169849
150081 127415
150081 107381
150081 80154
150081 75383
150081 38938
149037 123632
148786 110919
148220 161356
148075 95674
148049 17552
147985 182659
147172 172096
147044 145620
146967 164036
146967 146967
146500 108340
146259 136546
146259 89294
146259 68588
146259 59370
146259 4343
146036 156070
146036 11085
146009 178589
145620 147044
145381 50098
145353 145353
145353 121068
145353 116730
145353 62976
145353 38453
145335 24414
145310 192983
145310 10493
145310 3588
145122 168847
144965 84014
144666 195747
144614 19227
144614 7695
144170 105595
144004 133681
143644 118898
143528 153312
143528 83921
143394 90228
142811 122198
142811 61020
142743 4077
142670 127415
142670 121045
142670 110338
142670 108189
142670 107381
142670 10681
142670 5151
142397 7913
142332 16776
141754 49582
141754 19227
141397 64266
140660 80712
140438 100686
140293 199294
140293 179811
140293 142332
140293 118150
140257 89670
140257 42994
140239 71503
140239 19227
139489 111205
139489 54419
139489 19227
139169 100916
139147 123581
139147 52603
139088 187829
139042 132341
139042 127265
139042 13257
138848 106551
138709 191486
138709 138303
138709 134419
138709 133657
138709 122190
138709 121075
138709 115629
138709 111205
138709 106480
138709 103846
138709 103297
138709 85464
138709 64830
138709 34989
138709 7842
138709 6272
138709 3585
138303 94914
138220 166779
138150 127514
138102 23819
136900 34989
136897 178133
136897 173106
136834 21046
136711 125789
136651 155881
136580 122082
136546 195591
136546 183909
136546 167259
136546 146259
136546 127415
136546 118121
136546 116500
136546 107381
136546 89294
136546 45010
136546 43577
136546 4343
136304 199224
136165 159346
136140 41467
135611 135611
135611 102082
135569 192739
135569 111754
135255 157782
134556 195284
134556 31629
134496 13188
134488 570
134345 71923
134345 6099
133952 44626
133883 114977
133681 144004
133657 172689
133127 123643
132341 164642
132341 139042
132256 83655
131901 111205
131901 54419
131901 42895
131901 19227
131901 12501
131319 12258
131242 26660
131124 369
130275 199483
130275 192983
130275 179883
130275 167259
130275 148049
130275 127415
130275 127265
130275 126090
130275 123788
130275 121068
130275 107381
130275 106193
130275 98164
130275 88472
130275 72449
130275 66567
130275 57275
130275 54618
130275 54421
130275 46545
130275 43593
130275 38936
130275 27322
130275 25429
130275 23819
130275 22889
130275 15190
130275 11476
130275 11214
130275 5769
130275 3585
130275 2052
129952 184472
129952 106478
129952 44213
129680 127415
129680 107381
129680 75383
129680 10681
129616 30593
129517 181724
129517 167420
129517 106193
129517 83402
129517 78493
129350 26783
129064 38320
128093 113253
128093 48809
127514 138150
127415 195591
127415 182207
127415 177028
127415 155597
127415 150081
127415 146259
127415 140438
127415 121798
127415 121045
127415 39270
127415 3585
127395 20707
127265 139042
127265 38453
127265 13257
126097 191769
126090 187152
126090 147044
126090 127395
126090 125329
126090 106480
126090 93639
126090 80426
126090 49987
126090 44213
126090 29915
126090 20170
126090 19227
126042 181144
126042 43593
125789 136711
125571 77626
125329 20707
125329 16726
125329 2052
124842 122760
124268 53511
123822 192983
123822 167372
123822 139169
123822 99304
123822 43593
123822 42994
123788 194700
123643 133127
123632 155439
123632 149037
123632 122240
123618 30466
123581 194891
123581 166840
123581 139147
123581 134419
123581 50776
123581 19227
123581 10493
123340 29359
123268 196471
122788 50251
122760 124842
122240 66567
122198 75587
122190 192983
122190 187152
122190 161746
122190 157534
122190 126042
122190 125329
122190 100372
122190 97515
122190 44213
122190 42029
122190 18999
122190 17122
122190 15529
122020 157889
121886 68583
121840 54618
121798 154540
121602 68583
121602 32171
121291 164354
121291 155960
121291 138709
121291 123447
121291 113253
121291 108340
121291 79864
121291 66721
121291 56013
121291 50776
121291 50511
121291 33227
121291 29116
121291 8590
121291 3585
121075 138709
121075 36188
121075 26009
121068 179883
121068 68588
121045 127415
121045 110338
121045 107381
121045 12501
121045 9775
121045 4265
119658 7695
119043 96769
118898 143644
118625 83921
118625 68583
118392 27322
118121 136546
118121 127415
118121 113253
118121 107381
118121 103172
118121 39270
118121 12501
117911 24883
116730 192840
116514 115397
116500 98611
116500 54419
116035 195025
116013 190889
115968 111205
115629 169086
115477 95407
115477 89575
115477 51048
115397 116514
115361 103172
115361 33810
114572 194203
114572 68582
114504 103846
114397 44213
114337 171566
114337 91869
114337 58694
114159 2725
113622 170224
113532 123447
113253 177028
113253 128093
113253 127415
113253 121291
113253 121045
113253 118121
113253 107381
113253 103534
113253 57275
113253 39270
113253 9775
112950 59024
112950 30768
112505 35734
112505 23441
112505 11989
112505 11293
112423 92552
112383 199347
112246 71775
112148 72181
111754 192739
111754 158877
111754 135569
110441 69988
110338 169849
110338 142670
110338 127415
110338 121045
110338 107381
110338 82940
110338 10681
110338 4265
110338 3585
109520 192983
109520 151372
109520 80593
109475 145122
109475 127265
109475 125955
109475 97045
109475 80593
109475 34989
109475 32734
109475 29436
109475 23322
109475 17494
109475 3972
109362 168437
109266 178508
109266 76687
109259 151330
108584 77063
108340 146500
108241 100686
108241 43577
108197 41678
108189 184871
108189 127415
108189 121045
108189 107381
108183 82114
107439 56013
107381 195591
107381 194891
107381 182207
107381 181682
107381 177028
107381 169849
107381 159471
107381 155597
107381 150081
107381 146259
107381 142670
107381 140438
107381 136546
107381 130275
107381 129680
107381 121798
107381 121045
107381 118121
107381 113253
107381 110338
107381 108189
107381 102539
107381 95493
107381 82940
107381 76667
107381 75383
107381 73047
107381 68588
107381 65006
107381 57275
107381 50776
107381 43577
107381 39270
107381 31463
107381 10681
107381 9775
107381 4343
107381 4265
107381 4263
107381 3585
107349 97331
107347 3588
107158 43057
107111 195284
107111 31629
106766 62545
106554 127348
106478 129952
106408 180573
106344 184895
106294 7968
106193 192983
106193 181724
106193 167420
106193 130275
106193 129517
106193 103170
106193 85351
106193 78493
106193 56340
106193 44213
106193 25429
106193 18588
106193 7254
106193 3585
105864 157389
105811 157359
105595 144170
104675 155597
104675 104675
104675 14726
104498 185859
104078 82689
104066 55347
103846 190479
103846 151372
103846 114504
103846 26037
103653 18275
103647 33287
103647 29370
103534 113253
103534 76150
103369 25333
103189 47765
103170 187152
103170 106193
103170 64830
103170 3585
103170 2052
102964 69250
102831 199483
102782 50776
102782 29436
102739 30218
102539 173567
102539 107381
102532 192983
102532 97599
102403 24909
102082 135611
101538 181682
101128 149106
101128 134419
101128 126090
101128 94350
101128 22958
101073 75129
100916 139169
100916 14908
100870 42063
100686 140438
100686 127415
100686 107381
100686 43577
100614 184332
100417 183970
100372 83402
99695 85546
99674 66105
99674 19209
99506 30007
99331 195518
99304 33227
98611 116500
98434 102782
98164 125719
98143 20455
98143 4343
97599 102532
97515 42994
97331 107349
97322 199757
97045 192983
97045 109475
96769 119043
96305 178473
96226 193087
96103 95113
95694 73582
95694 36188
95674 148075
95493 127415
95493 107381
95493 40513
95407 115477
95407 6432
95113 111205
95113 96103
94914 138303
94803 170224
94803 50776
94803 18999
94803 8522
94803 5672
94484 3760
94428 69333
94161 17728
93639 144518
93392 76270
93340 131785
93253 159944
92680 31959
92552 112423
92075 198645
92075 190513
92075 183680
92075 168621
92075 78466
92075 16727
92075 4591
91869 114337
91436 87964
91078 134070
90888 195591
90888 12501
90558 43704
90483 88151
90474 58848
90224 197073
90224 191582
89670 140257
89664 92963
89575 115477
89446 149350
89446 49269
89294 146259
89294 136546
89294 73325
89294 5151
89205 20118
88721 82019
88601 158553
88472 130275
88472 55347
88472 46843
88472 3585
88151 90483
88129 51790
87964 91436
85546 168621
85546 99695
85546 50776
85464 138709
85464 127395
85464 6272
85375 97563
85351 106193
85351 83402
85351 3585
85351 2052
85168 149997
85168 20707
84879 125921
84859 197957
84471 4864
84434 22053
84367 158578
84173 70588
84112 105640
83921 143528
83921 118625
83921 68583
83448 49980
83402 192983
83402 181225
83402 167420
83402 100372
83402 85351
83402 78493
83402 20384
83402 7254
83209 88034
83032 178415
83032 83209
83032 26205
83032 2052
82940 127415
82940 110338
82940 107381
82689 104078
82318 1110
82144 47180
82123 134419
82114 108183
82019 88721
81458 77636
81246 192983
81246 190479
80712 140660
80593 192983
80593 109520
80593 109475
80520 49503
80426 40713
80154 150081
79864 195933
79864 144614
79864 141397
79864 123788
79864 121291
79864 115968
79864 69842
79864 38936
79864 26009
79864 9514
79864 7695
79864 6099
79696 23322
79549 80453
78619 171038
78563 175401
78493 181724
78493 167420
78493 129517
78493 106193
78493 83402
78466 198645
78466 192983
78466 92075
78466 18588
78466 16727
78466 5531
78466 4591
78346 32421
77746 122190
77636 81458
77332 53372
77332 7254
77063 108584
76760 191272
76687 109266
76687 25350
76667 169849
76667 135611
76667 127415
76667 107381
76667 102082
76667 75383
76667 59329
76667 57275
76667 25429
76667 10681
76509 7254
76500 173106
76500 4343
75587 122198
75383 181682
75383 169849
75383 150081
75383 129680
75383 127415
75383 107381
75383 76667
75383 31463
75383 5712
75129 101073
74906 189375
74906 11183
74906 2408
74113 122788
74113 28485
73582 95694
73582 73582
73356 197413
73344 2162
73325 89294
73047 127415
73047 107381
73047 57275
73047 19227
73047 10681
72449 130275
72449 115968
72449 21894
71923 134345
71923 6099
71904 49269
71903 190575
71775 117911
71775 112246
71775 40474
71775 14908
71503 140239
70691 187152
70676 185426
70593 188376
70593 115397
70588 84173
70069 184597
69988 110441
69859 190205
69842 17440
69457 61863
69333 199435
69333 94428
69333 34328
69250 102964
68588 146259
68588 127415
68588 121068
68588 107381
68588 54419
68588 26009
68588 12501
68583 83921
68583 43704
68583 5856
68582 194203
68582 177977
68582 114572
68017 27548
67604 9986
66853 179209
66741 181682
66741 101538
66567 122240
66105 99674
66105 480
65083 42495
65006 127415
65006 107381
64869 170463
64830 66715
64830 2052
63648 31255
62976 189375
62976 145353
62347 35626
62347 26084
61970 158205
61902 32171
61902 5769
61863 69457
61374 32734
61036 46545
60565 1924
60466 160095
59973 187491
59702 49333
59370 146259
59370 136546
59370 4343
59361 143197
59329 76667
59329 25429
59329 5769
59094 155130
59024 179211
59024 124896
59024 112950
59024 30768
59024 2408
59005 54419
59005 33038
59005 19227
58944 6982
58848 90474
58848 68583
58848 52906
58694 171566
58694 114337
58601 111205
58601 99674
58601 8816
57694 24644
56725 161679
56548 160563
56340 181724
56340 172957
56340 167420
56340 111205
56340 106193
56340 100372
56340 97045
56340 78493
56340 54419
56340 29415
56340 25429
56340 11183
56340 3585
56283 153312
56283 51480
56283 2052
56013 107439
55653 38978
55347 104066
55347 88472
54624 37679
54505 101128
54505 100916
54505 85195
54505 65083
54421 192983
54421 130275
54421 103170
54421 54419
54421 50776
54421 26783
54421 14726
54421 6099
54421 3585
54421 2052
53670 54756
53511 124268
53372 77332
53372 26009
53372 7254
52906 154446
52906 90474
52906 58848
52860 162119
52603 139147
52499 3972
52493 174369
52423 182901
52423 173106
52423 29915
51952 61251
51845 28941
51790 88129
51480 56283
51220 155439
51220 38938
51048 189071
51048 115477
50776 199483
50776 189375
50776 187152
50776 181682
50776 180350
50776 169920
50776 157534
50776 145122
50776 141754
50776 138709
50776 136546
50776 127415
50776 126090
50776 126042
50776 123581
50776 122190
50776 121291
50776 109475
50776 107381
50776 102782
50776 102403
50776 94803
50776 93392
50776 90483
50776 90482
50776 83032
50776 81246
50776 77332
50776 70069
50776 64830
50776 57275
50776 54756
50776 54421
50776 49987
50776 45010
50776 42029
50776 40474
50776 26783
50776 26205
50776 26009
50776 25429
50776 18999
50776 9775
50776 7791
50776 7254
50776 3761
50776 3760
50776 3585
50776 2052
50511 121291
50511 111205
50511 62017
50511 54419
50251 122788
50121 38453
49987 195599
49987 165739
49987 8866
49726 195508
49612 159109
49582 141754
49537 164645
49503 80520
49352 40947
49333 59702
49269 192983
49269 89446
49269 71904
49269 32171
49269 26009
49269 2052
48809 128093
48792 162075
48404 12501
48159 33068
48046 197073
47180 82144
46843 88472
46545 179883
46545 109475
46545 61036
45174 178589
45174 121068
45174 31873
45174 5531
45029 123848
45010 167259
45010 136546
44494 121939
44213 129952
44213 114397
44213 106193
44213 54419
44026 13330
43704 90558
43704 68583
43593 126042
43593 30592
43593 26009
43593 6099
43577 140438
43577 127415
43577 107381
43577 100686
43126 40144
43057 167259
43057 107158
42994 192983
42994 140257
42994 123822
42994 97515
42063 100870
42034 11476
42029 192983
42029 184366
42029 180350
42029 122190
42029 50776
42029 12501
41678 108197
41467 136140
41083 181225
41083 42034
40947 49352
40827 170463
40827 14108
40713 80426
40513 95493
40474 191769
40474 184472
40474 184366
40474 157534
40474 90482
40474 82689
40474 71775
40474 67627
40474 6099
40474 3585
40474 2052
40305 168847
40144 43126
39851 23441
39700 129427
39345 179209
39345 114572
39345 24179
39270 140438
39270 127415
39270 118121
39270 107381
39270 100686
39270 24902
39238 36248
39191 11696
38978 55653
38936 179883
38936 157534
38453 50121
38320 129064
38320 103172
37867 126090
37867 26205
37867 18999
37679 54624
36248 39238
36188 121075
36188 95694
35734 112505
35734 11989
35734 11293
35626 127265
35626 62347
35499 196738
35302 152536
35291 169402
34989 136900
34989 109475
34714 4265
34328 199435
34328 69333
33810 115361
33810 103172
33810 23008
33287 103647
33227 99304
33068 48159
33038 59005
32734 61374
32673 165669
32421 78346
32175 190513
32175 79624
32171 18588
31959 92680
31873 183209
31873 45174
31463 127415
31463 111205
31463 107381
31463 75383
31463 57275
31463 19227
31255 63648
31251 148717
30768 112950
30638 7791
30592 43593
30466 123618
30218 102739
30007 99506
29915 147985
29915 79864
29915 52423
29436 195747
29436 192983
29436 163991
29436 157889
29436 125955
29436 109475
29436 102782
29436 28487
29436 24414
29436 6099
29415 56340
29415 15921
29359 123340
29336 186917
29116 2480
28941 51845
28487 125955
28487 29436
27548 68017
27322 130275
27322 118392
27322 25429
27292 179883
27292 149106
26906 4909
26783 129350
26783 54421
26783 50776
26783 14726
26660 131242
26205 199483
26205 83032
26205 37867
26084 62347
26037 32171
26037 18588
26009 194947
26009 191769
26009 190513
26009 189375
26009 184597
26009 179883
26009 178415
26009 159346
26009 157359
26009 147985
26009 136834
26009 127395
26009 127265
26009 126042
26009 125955
26009 122190
26009 121075
26009 119658
26009 114397
26009 106478
26009 100916
26009 96769
26009 90482
26009 89446
26009 88129
26009 85195
26009 80593
26009 78493
26009 68588
26009 62976
26009 56340
26009 50121
26009 49980
26009 49269
26009 44213
26009 44026
26009 43593
26009 42063
26009 42029
26009 40947
26009 34328
26009 32175
26009 32171
26009 26638
26009 26084
26009 25429
26009 20707
26009 18999
26009 15529
26009 14726
26009 9514
26009 7791
26009 6099
26009 3761
26009 3585
26009 1687
25937 154737
25429 188959
25429 106193
25429 83402
25429 78493
25429 76667
25429 59329
25429 56340
25429 27322
25350 18588
25333 103369
24912 195933
24909 102403
24902 151330
24883 117911
24843 199370
24768 160192
24644 84112
24644 57694
24414 145335
24179 138709
24179 39345
24179 19227
23819 2052
23441 170363
23441 112505
23441 39851
23322 79696
23008 103172
23008 33810
22986 178407
22958 162627
22889 34989
22889 18348
22889 3585
22834 19227
22834 4641
22492 155439
22424 22424
22424 3471
22207 195851
22053 84434
21894 72449
21844 197938
21795 23078
21660 169381
21660 68583
21557 140051
21416 28146
21224 153959
21222 159117
21046 136834
20707 125329
20707 54419
20707 20384
20707 16754
20707 16726
20707 15529
20555 198026
20455 98143
20392 73871
20384 83402
20384 20707
20384 16726
20170 149106
20170 126090
20013 76852
19209 99674
18999 192983
18999 187152
18999 159346
18999 149106
18999 145122
18999 126090
18999 126042
18999 122190
18999 121068
18999 99695
18999 94803
18999 85195
18999 80593
18999 70676
18999 50776
18999 35626
18999 16726
18999 7690
18999 2052
18791 166227
18588 190479
18588 106193
18588 78466
18588 32171
18588 26037
18588 25350
18275 103653
18221 162987
17972 198740
17969 151093
17642 148049
17552 148049
17440 69842
17377 166782
17377 4591
17209 188032
16776 142332
16757 193785
16754 149997
16754 76270
16754 20707
16754 19227
16754 14494
16727 198645
16727 176914
16727 92075
16727 78466
16727 4591
16726 125329
16726 20707
16726 20384
16330 154129
16015 37221
15529 192983
15529 161746
15529 122190
15529 26009
15529 20707
15529 3585
15190 3761
14726 192983
14726 151443
14726 151372
14726 104675
14726 54421
14726 26783
14726 3585
14499 5151
14494 16754
14108 40827
13330 44026
13257 139042
13257 127265
13227 93018
13188 134496
12582 95095
12511 169920
12501 198740
12501 180350
12501 172633
12501 167259
12501 151330
12501 146259
12501 136546
12501 131901
12501 127415
12501 127265
12501 122190
12501 121045
12501 118121
12501 107381
12501 100372
12501 97515
12501 90888
12501 70676
12501 68588
12501 68017
12501 59329
12501 50776
12501 48404
12501 43577
12501 42029
12501 39270
12501 24902
12501 23819
12501 11299
12501 9775
12501 6099
12501 4265
12501 3585
12501 2052
11992 189677
11992 186063
11989 112505
11989 35734
11989 11293
11696 39191
11476 130275
11476 42034
11299 177028
11299 12501
11299 5548
11293 112505
11293 35734
11183 120994
11183 56340
10681 142670
10681 129680
10681 127415
10681 110338
10681 107381
10681 76667
10681 73047
10681 57275
10493 145310
9986 67604
9812 9812
9812 6272
9775 177028
9775 155597
9775 127415
9775 121045
9775 113253
9775 107381
9775 50776
9775 4265
9514 121068
9514 86378
9514 79864
9307 176944
8866 195599
8866 166145
8866 165739
8866 49987
8590 70593
8522 17642
8267 34427
7913 142397
7842 191486
7791 178508
7791 30638
7763 78013
7763 30366
7695 192983
7695 144614
7695 119658
7695 109475
7695 20707
7695 6099
7254 106193
7254 83402
7254 77332
7254 76509
7254 53372
7254 14908
7254 2408
6982 58944
6432 95407
6099 144614
6099 134345
6099 130275
6099 116514
6099 97045
6099 83209
6099 79864
6099 71923
6099 54421
6099 43593
6099 40474
6099 29436
6099 26009
6099 7695
5856 198537
5856 153312
5856 109475
5856 68583
5807 72870
5769 61902
5769 59329
5712 181682
5712 75383
5672 173628
5672 69250
5548 177028
5548 26009
5548 11299
5548 2963
5531 78466
5151 169849
5151 89294
5151 14499
4909 26906
4864 84471
4641 22834
4591 198645
4591 168621
4591 92075
4591 78466
4591 17377
4591 16727
4510 170872
4359 194630
4343 146259
4343 59370
4265 195591
4265 194947
4265 167259
4265 146259
4265 136546
4265 130275
4265 127415
4265 121045
4265 111205
4265 110338
4265 107381
4265 45010
4265 34714
4265 9775
4265 2052
4263 167259
4263 127415
4263 111205
4263 107381
4263 105637
4263 57275
3972 52499
3970 179141
3858 162486
3858 82689
3761 179141
3761 15190
3760 94484
3585 199347
3585 196738
3585 194947
3585 194891
3585 194630
3585 193893
3585 192983
3585 191769
3585 191486
3585 190513
3585 190479
3585 189677
3585 189375
3585 188959
3585 187152
3585 186063
3585 184472
3585 184366
3585 181724
3585 181682
3585 181225
3585 180985
3585 178508
3585 178473
3585 178415
3585 176692
3585 172957
3585 172689
3585 169849
3585 166779
3585 164354
3585 164297
3585 161746
3585 159109
3585 157534
3585 157359
3585 155960
3585 154540
3585 153959
3585 151372
3585 150081
3585 149997
3585 147985
3585 146259
3585 145335
3585 145122
3585 144614
3585 143394
3585 141754
3585 141397
3585 140239
3585 135611
3585 131901
3585 130275
3585 129952
3585 129680
3585 129517
3585 127415
3585 127395
3585 127265
3585 126090
3585 125955
3585 125789
3585 125329
3585 123447
3585 122190
3585 121798
3585 121291
3585 121075
3585 121045
3585 118121
3585 114397
3585 112383
3585 111205
3585 110338
3585 109475
3585 108302
3585 107381
3585 106480
3585 106478
3585 106193
3585 105811
3585 104078
3585 103534
3585 103170
3585 102782
3585 102739
3585 102082
3585 100372
3585 99695
3585 98434
3585 97515
3585 97045
3585 95694
3585 90483
3585 90482
3585 88472
3585 85546
3585 85464
3585 85351
3585 85195
3585 83402
3585 83209
3585 83032
3585 82689
3585 80593
3585 80154
3585 78493
3585 77332
3585 76687
3585 76667
3585 76270
3585 75383
3585 74906
3585 70676
3585 70069
3585 68583
3585 67627
3585 64830
3585 62976
3585 62347
3585 61036
3585 57275
3585 56340
3585 56283
3585 54756
3585 54421
3585 52603
3585 50121
3585 45174
3585 44213
3585 44026
3585 43593
3585 41083
3585 40713
3585 40474
3585 38938
3585 35499
3585 32734
3585 32673
3585 30592
3585 28146
3585 26084
3585 26037
3585 23819
3585 22889
3585 20707
3585 20384
3585 20170
3585 19227
3585 18999
3585 18588
3585 17377
3585 16754
3585 16726
3585 15921
3585 15529
3585 14908
3585 14726
3585 14494
3585 13330
3585 11992
3585 11214
3585 11183
3585 10681
3585 7791
3585 7695
3585 5712
3585 4359
3585 3858
3585 3761
3585 3760
3585 2725
3585 2480
3585 2408
3585 2052
3585 1687
3521 193502
3521 174084
3521 108687
3263 147044
3263 90228
3263 67627
3263 26009
2963 182207
2963 177028
2963 11299
2963 5548
2725 114159
2408 172689
2408 83362
2408 74906
2408 59024
2408 7254
2408 3585
2162 73344
2052 196738
2052 194947
2052 193893
2052 190513
2052 189375
2052 187152
2052 185859
2052 181724
2052 180985
2052 178473
2052 178415
2052 176692
2052 172957
2052 167420
2052 161746
2052 157534
2052 157359
2052 154540
2052 151372
2052 147985
2052 146259
2052 145122
2052 144614
2052 143394
2052 141397
2052 140239
2052 130275
2052 129952
2052 129517
2052 127395
2052 127265
2052 126090
2052 125789
2052 125329
2052 122190
2052 121798
2052 121075
2052 114504
2052 114397
2052 111205
2052 108302
2052 106480
2052 106478
2052 106193
2052 104498
2052 103170
2052 95694
2052 90483
2052 90482
2052 90228
2052 88472
2052 85351
2052 85195
2052 83402
2052 82689
2052 78493
2052 76667
2052 76270
2052 67627
2052 62976
2052 56340
2052 56283
2052 54756
2052 54421
2052 52603
2052 50121
2052 45174
2052 44213
2052 44026
2052 43593
2052 41083
2052 40474
2052 38938
2052 35499
2052 32673
2052 30592
2052 29359
2052 26084
2052 25429
2052 23819
2052 22889
2052 20707
2052 20170
2052 18999
2052 17552
2052 16726
2052 15529
2052 14726
2052 5712
2052 3858
2052 3760
2052 3585
2052 2725
2052 2480
2052 1687
1687 180985
1454 165342
1454 54419
1454 19227
1110 82318
570 134488
480 66105
369 131124
369 369
159 188104